POSCAR.xyz
1.000 
       26.2665004730         0.0000000000         0.0000000000
      -13.1328802901        22.7497470984         0.0000000000
        0.0000000000         0.0000000000        20.2017993927
C   Al  S   Cl  Cu  
54  1   54  4   27  
Cartesian
    -3.1840399999999999814      6.8739400000000001612     10.1008999999999993236
    -0.0311799999999999994      1.4112400000000000500     10.1008999999999993236
     3.1226600000000002133      6.8738000000000001322     10.1008999999999993236
     1.1933599999999999763      0.7044200000000000461     10.1008999999999993236
     4.3471200000000003172      6.1669400000000003104     10.1008999999999993236
     7.5000700000000000145      0.7043000000000000371     10.1008999999999993236
     5.5714899999999998315      6.8739499999999997826     10.1008999999999993236
     8.7243999999999992667      1.4112400000000000500     10.1008999999999993236
    11.8782099999999992690      6.8737800000000000011     10.1008999999999993236
     9.9489099999999996982      0.7043800000000000061     10.1008999999999993236
    13.1026199999999999335      6.1669200000000001793     10.1008999999999993236
    16.2555599999999991212      0.7042599999999999971     10.1008999999999993236
    14.3270300000000005980      6.8739400000000001612     10.1008999999999993236
    17.4799399999999991451      1.4112000000000000099     10.1008999999999993236
    20.6336399999999997590      6.8738000000000001322     10.1008999999999993236
    18.7043999999999996930      0.7044500000000000206     10.1008999999999993236
    21.8580700000000014427      6.1669299999999998008     10.1008999999999993236
    25.0110300000000016496      0.7042599999999999971     10.1008999999999993236
    -7.5616899999999995785     14.4571600000000000108     10.1008999999999993236
    -4.4087899999999997647      8.9945000000000003837     10.1008999999999993236
    -1.2549799999999999844     14.4570299999999996032     10.1008999999999993236
    -3.1843300000000001049      8.2876999999999991786     10.1008999999999993236
    -0.0305199999999999985     13.7502499999999994174     10.1008999999999993236
     3.1223900000000002208      8.2875599999999991496     10.1008999999999993236
     1.1938500000000000778     14.4571900000000006514     10.1008999999999993236
     4.3467900000000003757      8.9945000000000003837     10.1008999999999993236
     7.5005699999999997374     14.4570100000000003604     10.1008999999999993236
     5.5712200000000002831      8.2876600000000006929     10.1008999999999993236
     8.7249800000000004019     13.7502300000000001745     10.1008999999999993236
    11.8778799999999993275      8.2875200000000006639     10.1008999999999993236
     9.9494000000000006878     14.4571799999999992536     10.1008999999999993236
    13.1023300000000002541      8.9944600000000001216     10.1008999999999993236
    16.2560299999999990916     14.4569899999999993412     10.1008999999999993236
    14.3267000000000006565      8.2877299999999998192     10.1008999999999993236
    17.4804400000000015325     13.7501800000000002910     10.1008999999999993236
    20.6333599999999997010      8.2875200000000006639     10.1008999999999993236
   -11.9393399999999996197     22.0404499999999998749     10.1008999999999993236
    -8.7864299999999992963     16.5777199999999993452     10.1008999999999993236
    -5.6326099999999996726     22.0402899999999988268     10.1008999999999993236
    -7.5619199999999997530     15.8708799999999996544     10.1008999999999993236
    -4.4081299999999998818     21.3334399999999995146     10.1008999999999993236
    -1.2551900000000000279     15.8708600000000004115     10.1008999999999993236
    -3.1838000000000001855     22.0404599999999994964     10.1008999999999993236
    -0.0308499999999999990     16.5777099999999997237     10.1008999999999993236
     3.1229499999999998927     22.0402699999999995839     10.1008999999999993236
     1.1936400000000000343     15.8708600000000004115     10.1008999999999993236
     4.3473600000000001131     21.3334200000000002717     10.1008999999999993236
     7.5003000000000001890     15.8708299999999997709     10.1008999999999993236
     5.5717400000000001370     22.0404499999999998749     10.1008999999999993236
     8.7246900000000007225     16.5776800000000008595     10.1008999999999993236
    11.8783700000000003172     22.0402899999999988268     10.1008999999999993236
     9.9491300000000002512     15.8709299999999995379     10.1008999999999993236
    13.1028099999999998460     21.3334299999999998931     10.1008999999999993236
    16.2557800000000014506     15.8707999999999991303     10.1008999999999993236
    12.8332999999999994856      7.6093500000000000583     15.1516199999999994219
    -0.0311899999999999990      3.1423800000000001731     10.1008999999999993236
     1.6234399999999999942      6.0079099999999998616     10.1008999999999993236
     2.6925799999999999734      1.5701700000000000657     10.1008999999999993236
     4.3468799999999996331      4.4357100000000002638     10.1008999999999993236
     6.0007500000000000284      1.5701099999999998946     10.1008999999999993236
     7.0708299999999999486      6.0084999999999997300     10.1008999999999993236
     8.7243200000000005190      3.1423800000000001731     10.1008999999999993236
    10.3790700000000004621      6.0079500000000001236     10.1008999999999993236
    11.4480599999999999028      1.5701199999999999601     10.1008999999999993236
    13.1024799999999999045      4.4356900000000001327     10.1008999999999993236
    14.7563600000000008095      1.5700799999999999201     10.1008999999999993236
    15.8264200000000005986      6.0084900000000001086     10.1008999999999993236
    17.4798299999999997567      3.1423899999999997945     10.1008999999999993236
    19.1344899999999995543      6.0079500000000001236     10.1008999999999993236
    20.2035899999999983834      1.5701600000000000001     10.1008999999999993236
    21.8578900000000011516      4.4356999999999997542     10.1008999999999993236
    23.5118000000000009209      1.5700799999999999201     10.1008999999999993236
    -6.0622400000000000730     13.5916999999999994486     10.1008999999999993236
    -4.4088599999999997792     10.7256400000000002848     10.1008999999999993236
    -2.7542100000000000470     13.5912799999999993616     10.1008999999999993236
    -1.6850199999999999623      9.1534499999999994202     10.1008999999999993236
    -0.0308000000000000010     12.0189299999999992252     10.1008999999999993236
     1.6231500000000000927      9.1533099999999993912     10.1008999999999993236
     2.6932200000000001694     13.5917200000000004678     10.1008999999999993236
     4.3466500000000003467     10.7256499999999999062     10.1008999999999993236
     6.0014200000000004209     13.5913199999999996237     10.1008999999999993236
     7.0704599999999997451      9.1533999999999995367     10.1008999999999993236
     8.7248000000000001108     12.0189099999999999824     10.1008999999999993236
    10.3787500000000001421      9.1532800000000005269     10.1008999999999993236
    11.4488099999999999312     13.5917100000000008464     10.1008999999999993236
    13.1021599999999995845     10.7256599999999995276     10.1008999999999993236
    14.7568500000000000227     13.5913100000000000023     10.1008999999999993236
    15.8259899999999991138      9.1534399999999997988     10.1008999999999993236
    17.4802500000000016200     12.0189099999999999824     10.1008999999999993236
    19.1341999999999998749      9.1532699999999991292     10.1008999999999993236
   -10.4398499999999998522     21.1749299999999998079     10.1008999999999993236
    -8.7864500000000003155     18.3089100000000009061     10.1008999999999993236
    -7.1318500000000000227     21.1744699999999994589     10.1008999999999993236
    -6.0626800000000002910     16.7366500000000009152     10.1008999999999993236
    -4.4084099999999999397     19.6022199999999990894     10.1008999999999993236
    -2.7544900000000001050     16.7365800000000000125     10.1008999999999993236
    -1.6843900000000000539     21.1749599999999986721     10.1008999999999993236
    -0.0309399999999999988     18.3089100000000009061     10.1008999999999993236
     1.6237900000000000666     21.1745200000000011187     10.1008999999999993236
     2.6928000000000000824     16.7366099999999988768     10.1008999999999993236
     4.3471799999999998221     19.6021999999999998465     10.1008999999999993236
     6.0011099999999997223     16.7365500000000011482     10.1008999999999993236
     7.0712000000000001521     21.1749499999999990507     10.1008999999999993236
     8.7245699999999999363     18.3089200000000005275     10.1008999999999993236
    10.3792100000000004911     21.1745200000000011187     10.1008999999999993236
    11.4483300000000003394     16.7366600000000005366     10.1008999999999993236
    13.1026000000000006906     19.6022099999999994679     10.1008999999999993236
    14.7565600000000003433     16.7365500000000011482     10.1008999999999993236
    -1.6846300000000000718      6.0084699999999999775     10.1008999999999993236
    14.7697299999999991371      7.2767099999999995674     14.2757400000000007623
    12.1901700000000001722      9.5299600000000008748     14.4262200000000007094
    11.4661899999999992161      6.0452899999999996083     14.5938700000000007861
    12.9033700000000006725      7.5894599999999998730     17.3009699999999995157
     8.7247800000000008680      7.5807099999999998374     10.1008999999999993236
    24.0464599999999997237      3.7895099999999999341     10.1008999999999993236
    19.6684300000000007458      3.7888999999999999346     10.1008999999999993236
    17.4802099999999995816      7.5807200000000003470     10.1008999999999993236
     2.1577999999999999403     11.3727499999999999147     10.1008999999999993236
    -2.2202199999999998603     11.3722300000000000608     10.1008999999999993236
    -4.4084899999999995757     15.1640499999999995850     10.1008999999999993236
    10.9133999999999993236     11.3727400000000002933     10.1008999999999993236
     6.5353099999999999525     11.3722300000000000608     10.1008999999999993236
     4.3471099999999998076     15.1640399999999999636     10.1008999999999993236
    19.6688499999999990564     11.3727300000000006719     10.1008999999999993236
    15.2907399999999995543     11.3722300000000000608     10.1008999999999993236
    13.1025399999999994094     15.1640499999999995850     10.1008999999999993236
    -2.2197900000000001519     18.9559800000000002740     10.1008999999999993236
    -6.5977800000000002001     18.9554100000000005366     10.1008999999999993236
    -8.7860999999999993548     22.7472799999999999443     10.1008999999999993236
     6.5358000000000000540     18.9559700000000006526     10.1008999999999993236
     2.1577399999999999913     18.9554100000000005366     10.1008999999999993236
    -0.0305099999999999989     22.7472700000000003229     10.1008999999999993236
    15.2912199999999991462     18.9559600000000010311     10.1008999999999993236
    10.9131599999999995276     18.9554299999999997794     10.1008999999999993236
     8.7249199999999991206     22.7472799999999999443     10.1008999999999993236
     6.5354499999999999815      3.7895300000000000651     10.1008999999999993236
     2.1574800000000000644      3.7888799999999998036     10.1008999999999993236
    -0.0308200000000000002      7.5807200000000003470     10.1008999999999993236
    15.2910400000000006315      3.7895099999999999341     10.1008999999999993236
    10.9130099999999998772      3.7888799999999998036     10.1008999999999993236
