AltSuperKopt\(2)                        
   1.00000000000000     
    17.2999992370999998    0.0000000000000000    0.0000000000000000
    -8.6499996185000008   14.9822388246999996    0.0000000000000000
     0.0000000000000000    0.0000000000000000   20.0000000000000000
   N    C    H    Li
    36    24    12     1
Direct
S
  0.2020186227802776  0.1412531492264907  0.2500181232619352 F F F
  0.3592573070937055  0.1935500886612986  0.2492685044844870 F F F
  0.3069609666151594  0.2984876039449766  0.2494742334642515 F F F
  0.0528463093679721  0.2903129653868268  0.2501369056067335 F F F
  0.2100886945773134  0.3952916950099488  0.2498005809191236 F F F
  0.1051119106774181  0.4475514060657251  0.2498646990485988 F F F
  0.1506476591542500  0.2390084924442624  0.2501255027006316 F F F
  0.2614464280471560  0.0444287188176407  0.2497590336125011 F F F
  0.4560666889704338  0.3498779001974615  0.2486906100496031 F F F
  0.7019360999431794  0.1412269332761401  0.2493733184556958 F F F
  0.8591762832833519  0.1935210702234691  0.2499078434392987 F F F
  0.8068769191997102  0.2984587631554200  0.2495306656686326 F F F
  0.5527611612697164  0.2903019052246241  0.2488274836776304 F F F
  0.7101366156383015  0.3952315920163765  0.2482983878862745 F F F
  0.6052020232915096  0.4476703065277918  0.2485433407367238 F F F
  0.6505582028591119  0.2389595825448897  0.2488449272651985 F F F
  0.7614224512118161  0.0443982775579373  0.2497363766907603 F F F
  0.9559943912654619  0.3497811048138159  0.2500870229762091 F F F
  0.2019546947445190  0.6412333663507970  0.2497770066556875 F F F
  0.3591910130532899  0.6934945480921491  0.2496934331039193 F F F
  0.3069292158953469  0.7984677070682425  0.2499390640473828 F F F
  0.0528480469454008  0.7903379571695009  0.2500299536337699 F F F
  0.2100818282427862  0.8953138959312120  0.2498653622273991 F F F
  0.1051160846211304  0.9475862550424616  0.2498990390224692 F F F
  0.1506480622845033  0.7390191647721996  0.2499739985784800 F F F
  0.2614090131927251  0.5444059619957933  0.2495929430002268 F F F
  0.4560187213353025  0.8497768244017326  0.2498961667209856 F F F
  0.7019541861943379  0.6411647260892681  0.2494423715324192 F F F
  0.8591963738998164  0.6934656004018310  0.2493364774440553 F F F
  0.8068882696433556  0.7983951832829016  0.2501607622735083 F F F
  0.5528673243099758  0.7903344050748379  0.2500736362886316 F F F
  0.7101047557217856  0.8952966263700493  0.2498972459487680 F F F
  0.6051336217216804  0.9475730850459497  0.2498132771720054 F F F
  0.6506315205063853  0.7389691534382358  0.2501597653844518 F F F
  0.7614751213491425  0.5443609563366562  0.2484661204725945 F F F
  0.9560118576331190  0.8497811141024229  0.2500617704580088 F F F
  0.2721204142310426  0.1290538285592539  0.2496922481068308 F F F
  0.3713337312684289  0.2757785916215953  0.2491841038291966 F F F
  0.2246226319870676  0.2283478634269345  0.2498702812006977 F F F
  0.1399686067082161  0.3130044409972762  0.2500068492968006 F F F
  0.1874315875522672  0.4597598925572706  0.2497638707570322 F F F
  0.0406665381910318  0.3604344261053005  0.2500365749658287 F F F
  0.7720799322660058  0.1290324585792116  0.2496818540580877 F F F
  0.8713736641322190  0.2758213289454732  0.2498443995164308 F F F
  0.7246469662148468  0.2283119627544023  0.2492706432858983 F F F
  0.6399448082511718  0.3128649670748596  0.2485207088171460 F F F
  0.6875831345843721  0.4598383188166617  0.2483108274417189 F F F
  0.5405910525030420  0.3605027536113886  0.2484724299504177 F F F
  0.2720751586972512  0.6290631764783139  0.2496949837781963 F F F
  0.3713640352766857  0.7757864730970598  0.2498418767596387 F F F
  0.2246380352488540  0.7283500205680697  0.2498916333096851 F F F
  0.1399724191308023  0.8129943390053601  0.2499570747655098 F F F
  0.1874161907895828  0.9597633646110149  0.2498601927609801 F F F
  0.0406852012817768  0.8604618483988393  0.2499838892564923 F F F
  0.7721092045132223  0.6290898124543219  0.2491252561318078 F F F
  0.8713829484658979  0.7757995978954897  0.2498601588971035 F F F
  0.7245889137917518  0.7282974566848736  0.2499238780722554 F F F
  0.6399837515780954  0.8129954697698846  0.2500494602671838 F F F
  0.6874183821660719  0.9597319632897170  0.2498128219609220 F F F
  0.5406666522314730  0.8604504652650128  0.2499285268047789 F F F
  0.0918043238811690  0.1802099319688161  0.2503246886540370 F F F
  0.3202408840087798  0.0443694068825421  0.2496262578200114 F F F
  0.4559781545083803  0.4086592143364245  0.2487658715041208 F F F
  0.5917754007373116  0.1800884127549713  0.2489662479533184 F F F
  0.8202205068074803  0.0443491351149307  0.2498004718941651 F F F
  0.9560412353981577  0.4086273037369393  0.2500629480210373 F F F
  0.0918235221040445  0.6801896123171357  0.2500202795956913 F F F
  0.3202384873890796  0.5444095280588480  0.2495311109840888 F F F
  0.4560175660044151  0.9086013611377148  0.2499294367732079 F F F
  0.5917778434294865  0.6801733220294716  0.2501660499353967 F F F
  0.8203528290473027  0.5444611672405415  0.2483674745027436 F F F
  0.9560491756784434  0.9086183387057826  0.2501846501405606 F F F
  0.6190376374043466  0.3774601770870196  0.4145340183219818 F F T
