POSCAR.xyz                              
   1.00000000000000     
    26.2665004730000007    0.0000000000000000    0.0000000000000000
   -13.1328802900999992   22.7497470984000003    0.0000000000000000
     0.0000000000000000    0.0000000000000000   20.2017993926999999
   C    Al   S    Cl   Cu
    54     1    54     4    27
Direct
  0.0295994090296545  0.3022024962382945  0.5017180709009430
  0.0297952534686477  0.0620536624472722  0.5000362369703709
  0.2702592753254554  0.3021155637261239  0.5011402205985845
  0.0609120708682257  0.0309566042028809  0.4999585929103540
  0.3011962572645876  0.2708935910541940  0.5040706686910489
  0.3016226017261481  0.0315306808270027  0.5036400865509246
  0.3634207273159744  0.3019161178973364  0.5040589760973833
  0.3637452560661649  0.0625961695707881  0.5062840989511803
  0.6029640675493048  0.3015501931850622  0.5008354066230093
  0.3947967513128495  0.0316314964752139  0.5037804577072195
  0.6341929187211423  0.2706657800558886  0.5069594405196564
  0.6344610469998795  0.0315669532556450  0.5008713453636423
  0.6963471684146085  0.3019183732692110  0.5019755008851426
  0.6964200369382854  0.0624800004057782  0.5036302856644084
  0.9363530242198647  0.3021355463835470  0.5042730942363850
  0.7275193260203677  0.0314138012443377  0.5022439471835295
  0.9674640307792657  0.2710912264570981  0.5044125681462371
  0.9676334425005305  0.0309443876038607  0.4999239911956481
  0.0295148138185459  0.6353546406989370  0.4989378572267834
  0.0294122897768372  0.3952379697144152  0.5011405632130747
  0.2699273662513461  0.6355839551644483  0.5022013366357657
  0.0605523207851289  0.3642203031281335  0.5009048361679678
  0.3009949296629004  0.6044223827863945  0.5018008475552456
  0.3013825570180839  0.3641285653491589  0.5003231836676492
  0.3632101767623148  0.6355563685559491  0.5018786689770743
  0.3636104862464912  0.3951042611681773  0.5011050058076597
  0.6031950459205181  0.6351181423329773  0.5005047942771054
  0.3946238423731173  0.3639093403057347  0.5022577285649942
  0.6341836753833214  0.6039900049053454  0.5040676429568021
  0.6337724470515721  0.3636779400280107  0.5050475915924648
  0.6962747910197071  0.6350161406595977  0.5061344733247070
  0.6960640886835486  0.3950839223588620  0.5025817870008975
  0.9363208450676276  0.6353170516973433  0.5026685495778740
  0.7274149852297596  0.3642135155161781  0.5037407925753664
  0.9673138703062737  0.6041733588268762  0.5008172817049358
  0.9672117101244651  0.3641242356666807  0.5019892141628102
  0.0298232583044707  0.9688234889043600  0.5001439033886222
  0.0296225657030159  0.7285761831364188  0.5005731808922061
  0.2705155314611428  0.9694156871975629  0.5013245266468187
  0.0606502865448343  0.6974798302660383  0.5002179707379869
  0.3015904603449926  0.9384206491518582  0.4995929367228485
  0.3010223539259659  0.6977319503685065  0.5016631086765584
  0.3637492673724882  0.9695931022700968  0.5000345599061894
  0.3632380016866784  0.7288542898451866  0.5011806425499448
  0.6033577770020495  0.9694309523853916  0.4992250588662855
  0.3943040094003741  0.6977013333907612  0.5018442460213960
  0.6344001393976938  0.9382973361898682  0.4998803791822863
  0.6342969918328516  0.6973477217990343  0.5005210793595870
  0.6964271534915277  0.9692470455080605  0.5010678999345839
  0.6963799011608360  0.7283325306717224  0.5005069957417833
  0.9365385765264526  0.9688199473489144  0.4999535794496417
  0.7273980113880802  0.6972156914090863  0.5030866053740155
  0.9676494000044457  0.9377103761201684  0.4990591067663807
  0.9674735199317941  0.6974893174820652  0.5023526064350277
  0.6566301786794884  0.3346625645606908  0.7010587795114898
  0.0678865474256508  0.1381543981870836  0.5004086517083514
  0.1942016796388282  0.2642032146929747  0.4980901440694657
  0.1370519526837431  0.0690723866696137  0.4988959966070110
  0.2631529629687240  0.1949825176046293  0.5085433364036601
  0.2635889082986900  0.0695518403540607  0.5037025686522819
  0.4014527887020961  0.2637951219935779  0.5066827538602805
  0.4019435337178718  0.1385310975070063  0.5143698144666347
  0.5288984829886647  0.2639343166395547  0.4838346258855745
  0.4710424356418955  0.0700506775364239  0.5047507155332377
  0.5976358285585421  0.1972403198442013  0.5261235835898734
  0.5965897007152431  0.0699684791289873  0.4982229542839791
  0.7333443586532107  0.2642849072032499  0.4889634604844819
  0.7342280160437671  0.1385326345535386  0.5099991967399955
  0.8602143108693107  0.2641180716208106  0.5075422856751060
  0.8035808880941384  0.0695080530492676  0.5019253010950618
  0.9295395652117647  0.1951416848206380  0.5088378059955915
  0.9295683889799795  0.0690106603649195  0.4989887137909321
  0.0674600098491001  0.5974159468293648  0.4936430285735807
  0.0673652180918835  0.4712365201053404  0.4998390044804519
  0.1937989123260562  0.5975378422431858  0.5039243529798811
  0.1366972194015237  0.4022951622653086  0.4992759412591765
  0.2629561275281407  0.5282986011915668  0.5013453493687241
  0.2633773063436215  0.4022382404692240  0.4978384662277808
  0.4012293245901925  0.5974553909121482  0.5023434173544667
  0.4016976088944563  0.4710774634326856  0.4998654300662156
  0.5273870931884419  0.5971907009374939  0.4947186381062488
  0.4708687007969623  0.4015641003044413  0.5013365045145060
  0.5961925279683514  0.5278096609236588  0.5060403197321752
  0.5958587859911266  0.4003895811311287  0.5178673073095202
  0.7340790673194525  0.5968682739500460  0.5130418914942928
  0.7333767482948386  0.4702178356768330  0.4934375255726821
  0.8601939629239749  0.5972111009742475  0.5050639528453196
  0.8026600058364874  0.4018608610551943  0.5110581992706366
  0.9290495708448584  0.5280048229994232  0.5009769946152699
  0.9287822639113649  0.4019081211987701  0.5000279771477123
  0.0678841551870498  0.9307604290380143  0.5021999459206736
  0.0677670918190023  0.8046193607636386  0.4982032917393528
  0.1943770310821175  0.9312592987220120  0.5007287422850339
  0.1367469056721849  0.7356081074384336  0.5016966039728985
  0.2635226534327219  0.8623585782971651  0.4957478216834998
  0.2629404925576880  0.7357926520190408  0.5020449262117490
  0.4018560602508818  0.9317940905557471  0.4947688634348564
  0.4013056917818078  0.8049666401728690  0.5000888887452124
  0.5273764473768955  0.9315852805510073  0.4954542809395848
  0.4704149061932204  0.7357760965209794  0.5032707774905356
  0.5963604746802520  0.8621761057271096  0.4983344616615828
  0.5963173377102547  0.7354248792939061  0.5002033575918726
  0.7343781327031212  0.9310419023110498  0.5014952446319043
  0.7343507993202671  0.8043588525675373  0.4965876419787081
  0.8604119293504613  0.9307519478766565  0.5015016931608005
  0.8034029427693702  0.7351715700235458  0.5027748888818495
  0.9296374537951839  0.8616618993421447  0.4956113393198324
  0.9294746521279016  0.7354892032183413  0.5048831034049568
  0.0676921041261278  0.2642427071574613  0.4992842997069015
  0.7217265470597233  0.3144490298920433  0.6624345941216682
  0.6792591679029604  0.4216466723898310  0.6665839024993059
  0.5717820365454502  0.2722947918864609  0.6587272114291852
  0.6529432205171768  0.3291740018395116  0.8057528688866491
  0.4984397123967558  0.3313508600607766  0.5031115498511766
  0.9987025829923472  0.1666792259449763  0.5014661685777956
  0.8318374964541867  0.1668443519817653  0.5058640111540813
  0.8311009747885846  0.3322515504329761  0.5033317049211711
  0.3324572343747995  0.4998013827457747  0.5000374092933906
  0.1651576591045701  0.4999800879834126  0.5002729548637737
  0.1651190134059582  0.6664072082589576  0.4999092434462834
  0.6648307150832760  0.4989591371396069  0.5089609085689489
  0.4988789491895603  0.4995255805344889  0.5018312018691741
  0.4987448847243219  0.6663515024342350  0.4998940715151228
  0.9985266409546625  0.4997563280198469  0.4999193635030495
  0.8314078049301159  0.4997934235941147  0.5041959337436954
  0.8316922925371986  0.6661766172809386  0.5060826157906739
  0.3323645836852591  0.8336771638603613  0.4987905987400963
  0.1656302984123212  0.8333819177855187  0.4993541358925136
  0.1656660633153556  0.0000762243880560  0.5011289339294742
  0.6652556624311495  0.8331412608130019  0.4995115752827213
  0.4989337344743317  0.8336811746900655  0.4997102237708853
  0.4991805906292673  0.0008959421610589  0.5009324806189052
  0.9985972158025344  0.8330128520417257  0.5007706762578238
  0.8319952151740230  0.8329417077540203  0.4999994336158000
  0.8319184825134345  0.0000543081043671  0.5012094382671003
  0.3327526332849574  0.1666827432618204  0.5068934500319131
  0.1656064041234825  0.1667235062794008  0.5011361375377872
  0.1654837528488275  0.3332893088288619  0.4987149836868031
  0.6649579237806236  0.1668102693196633  0.5070009551529605
  0.4994739363303017  0.1674198386655255  0.5084523726977165
 
  0.00000000E+00  0.00000000E+00  0.00000000E+00
  0.00000000E+00  0.00000000E+00  0.00000000E+00
  0.00000000E+00  0.00000000E+00  0.00000000E+00
  0.00000000E+00  0.00000000E+00  0.00000000E+00
  0.00000000E+00  0.00000000E+00  0.00000000E+00
  0.00000000E+00  0.00000000E+00  0.00000000E+00
  0.00000000E+00  0.00000000E+00  0.00000000E+00
  0.00000000E+00  0.00000000E+00  0.00000000E+00
  0.00000000E+00  0.00000000E+00  0.00000000E+00
  0.00000000E+00  0.00000000E+00  0.00000000E+00
  0.00000000E+00  0.00000000E+00  0.00000000E+00
  0.00000000E+00  0.00000000E+00  0.00000000E+00
  0.00000000E+00  0.00000000E+00  0.00000000E+00
  0.00000000E+00  0.00000000E+00  0.00000000E+00
  0.00000000E+00  0.00000000E+00  0.00000000E+00
  0.00000000E+00  0.00000000E+00  0.00000000E+00
  0.00000000E+00  0.00000000E+00  0.00000000E+00
  0.00000000E+00  0.00000000E+00  0.00000000E+00
  0.00000000E+00  0.00000000E+00  0.00000000E+00
  0.00000000E+00  0.00000000E+00  0.00000000E+00
  0.00000000E+00  0.00000000E+00  0.00000000E+00
  0.00000000E+00  0.00000000E+00  0.00000000E+00
  0.00000000E+00  0.00000000E+00  0.00000000E+00
  0.00000000E+00  0.00000000E+00  0.00000000E+00
  0.00000000E+00  0.00000000E+00  0.00000000E+00
  0.00000000E+00  0.00000000E+00  0.00000000E+00
  0.00000000E+00  0.00000000E+00  0.00000000E+00
  0.00000000E+00  0.00000000E+00  0.00000000E+00
  0.00000000E+00  0.00000000E+00  0.00000000E+00
  0.00000000E+00  0.00000000E+00  0.00000000E+00
  0.00000000E+00  0.00000000E+00  0.00000000E+00
  0.00000000E+00  0.00000000E+00  0.00000000E+00
  0.00000000E+00  0.00000000E+00  0.00000000E+00
  0.00000000E+00  0.00000000E+00  0.00000000E+00
  0.00000000E+00  0.00000000E+00  0.00000000E+00
  0.00000000E+00  0.00000000E+00  0.00000000E+00
  0.00000000E+00  0.00000000E+00  0.00000000E+00
  0.00000000E+00  0.00000000E+00  0.00000000E+00
  0.00000000E+00  0.00000000E+00  0.00000000E+00
  0.00000000E+00  0.00000000E+00  0.00000000E+00
  0.00000000E+00  0.00000000E+00  0.00000000E+00
  0.00000000E+00  0.00000000E+00  0.00000000E+00
  0.00000000E+00  0.00000000E+00  0.00000000E+00
  0.00000000E+00  0.00000000E+00  0.00000000E+00
  0.00000000E+00  0.00000000E+00  0.00000000E+00
  0.00000000E+00  0.00000000E+00  0.00000000E+00
  0.00000000E+00  0.00000000E+00  0.00000000E+00
  0.00000000E+00  0.00000000E+00  0.00000000E+00
  0.00000000E+00  0.00000000E+00  0.00000000E+00
  0.00000000E+00  0.00000000E+00  0.00000000E+00
  0.00000000E+00  0.00000000E+00  0.00000000E+00
  0.00000000E+00  0.00000000E+00  0.00000000E+00
  0.00000000E+00  0.00000000E+00  0.00000000E+00
  0.00000000E+00  0.00000000E+00  0.00000000E+00
  0.00000000E+00  0.00000000E+00  0.00000000E+00
  0.00000000E+00  0.00000000E+00  0.00000000E+00
  0.00000000E+00  0.00000000E+00  0.00000000E+00
  0.00000000E+00  0.00000000E+00  0.00000000E+00
  0.00000000E+00  0.00000000E+00  0.00000000E+00
  0.00000000E+00  0.00000000E+00  0.00000000E+00
  0.00000000E+00  0.00000000E+00  0.00000000E+00
  0.00000000E+00  0.00000000E+00  0.00000000E+00
  0.00000000E+00  0.00000000E+00  0.00000000E+00
  0.00000000E+00  0.00000000E+00  0.00000000E+00
  0.00000000E+00  0.00000000E+00  0.00000000E+00
  0.00000000E+00  0.00000000E+00  0.00000000E+00
  0.00000000E+00  0.00000000E+00  0.00000000E+00
  0.00000000E+00  0.00000000E+00  0.00000000E+00
  0.00000000E+00  0.00000000E+00  0.00000000E+00
  0.00000000E+00  0.00000000E+00  0.00000000E+00
  0.00000000E+00  0.00000000E+00  0.00000000E+00
  0.00000000E+00  0.00000000E+00  0.00000000E+00
  0.00000000E+00  0.00000000E+00  0.00000000E+00
  0.00000000E+00  0.00000000E+00  0.00000000E+00
  0.00000000E+00  0.00000000E+00  0.00000000E+00
  0.00000000E+00  0.00000000E+00  0.00000000E+00
  0.00000000E+00  0.00000000E+00  0.00000000E+00
  0.00000000E+00  0.00000000E+00  0.00000000E+00
  0.00000000E+00  0.00000000E+00  0.00000000E+00
  0.00000000E+00  0.00000000E+00  0.00000000E+00
  0.00000000E+00  0.00000000E+00  0.00000000E+00
  0.00000000E+00  0.00000000E+00  0.00000000E+00
  0.00000000E+00  0.00000000E+00  0.00000000E+00
  0.00000000E+00  0.00000000E+00  0.00000000E+00
  0.00000000E+00  0.00000000E+00  0.00000000E+00
  0.00000000E+00  0.00000000E+00  0.00000000E+00
  0.00000000E+00  0.00000000E+00  0.00000000E+00
  0.00000000E+00  0.00000000E+00  0.00000000E+00
  0.00000000E+00  0.00000000E+00  0.00000000E+00
  0.00000000E+00  0.00000000E+00  0.00000000E+00
  0.00000000E+00  0.00000000E+00  0.00000000E+00
  0.00000000E+00  0.00000000E+00  0.00000000E+00
  0.00000000E+00  0.00000000E+00  0.00000000E+00
  0.00000000E+00  0.00000000E+00  0.00000000E+00
  0.00000000E+00  0.00000000E+00  0.00000000E+00
  0.00000000E+00  0.00000000E+00  0.00000000E+00
  0.00000000E+00  0.00000000E+00  0.00000000E+00
  0.00000000E+00  0.00000000E+00  0.00000000E+00
  0.00000000E+00  0.00000000E+00  0.00000000E+00
  0.00000000E+00  0.00000000E+00  0.00000000E+00
  0.00000000E+00  0.00000000E+00  0.00000000E+00
  0.00000000E+00  0.00000000E+00  0.00000000E+00
  0.00000000E+00  0.00000000E+00  0.00000000E+00
  0.00000000E+00  0.00000000E+00  0.00000000E+00
  0.00000000E+00  0.00000000E+00  0.00000000E+00
  0.00000000E+00  0.00000000E+00  0.00000000E+00
  0.00000000E+00  0.00000000E+00  0.00000000E+00
  0.00000000E+00  0.00000000E+00  0.00000000E+00
  0.00000000E+00  0.00000000E+00  0.00000000E+00
  0.00000000E+00  0.00000000E+00  0.00000000E+00
  0.00000000E+00  0.00000000E+00  0.00000000E+00
  0.00000000E+00  0.00000000E+00  0.00000000E+00
  0.00000000E+00  0.00000000E+00  0.00000000E+00
  0.00000000E+00  0.00000000E+00  0.00000000E+00
  0.00000000E+00  0.00000000E+00  0.00000000E+00
  0.00000000E+00  0.00000000E+00  0.00000000E+00
  0.00000000E+00  0.00000000E+00  0.00000000E+00
  0.00000000E+00  0.00000000E+00  0.00000000E+00
  0.00000000E+00  0.00000000E+00  0.00000000E+00
  0.00000000E+00  0.00000000E+00  0.00000000E+00
  0.00000000E+00  0.00000000E+00  0.00000000E+00
  0.00000000E+00  0.00000000E+00  0.00000000E+00
  0.00000000E+00  0.00000000E+00  0.00000000E+00
  0.00000000E+00  0.00000000E+00  0.00000000E+00
  0.00000000E+00  0.00000000E+00  0.00000000E+00
  0.00000000E+00  0.00000000E+00  0.00000000E+00
  0.00000000E+00  0.00000000E+00  0.00000000E+00
  0.00000000E+00  0.00000000E+00  0.00000000E+00
  0.00000000E+00  0.00000000E+00  0.00000000E+00
  0.00000000E+00  0.00000000E+00  0.00000000E+00
  0.00000000E+00  0.00000000E+00  0.00000000E+00
  0.00000000E+00  0.00000000E+00  0.00000000E+00
  0.00000000E+00  0.00000000E+00  0.00000000E+00
  0.00000000E+00  0.00000000E+00  0.00000000E+00
  0.00000000E+00  0.00000000E+00  0.00000000E+00
  0.00000000E+00  0.00000000E+00  0.00000000E+00
  0.00000000E+00  0.00000000E+00  0.00000000E+00
  0.00000000E+00  0.00000000E+00  0.00000000E+00
  0.00000000E+00  0.00000000E+00  0.00000000E+00
  0.00000000E+00  0.00000000E+00  0.00000000E+00
