POSCAR.xyz                              
   1.00000000000000     
    26.2665004730000007    0.0000000000000000    0.0000000000000000
   -13.1328802900999992   22.7497470984000003    0.0000000000000000
     0.0000000000000000    0.0000000000000000   20.2017993926999999
   C    Al   S    Cl   Cu
    54     1    54     4    27
Direct
  0.0296955519330744  0.3022039118295430  0.5001523777406234
  0.0298144318631104  0.0620286781112047  0.5001644104491564
  0.2700411537277266  0.3021655919387803  0.4999099186974473
  0.0608776947463308  0.0309508013461322  0.5002874917492643
  0.3011106317697741  0.2710590726045768  0.5006239329295030
  0.3012301779289461  0.0311236258514275  0.5006349289035634
  0.3632810379114727  0.3021038989632276  0.5013283885695401
  0.3633928467897478  0.0622196615892478  0.5017664088752868
  0.6031320230043793  0.3019384238555083  0.5077796264888601
  0.3944162751513448  0.0311071723236311  0.5016570736926288
  0.6343652734097810  0.2708873881388768  0.5098923922055476
  0.6343661692913005  0.0311672274029521  0.5007709234652218
  0.6965411533177119  0.3020673269282260  0.5063468616686607
  0.6964449488989394  0.0622144432105959  0.5009387756505306
  0.9364764664659045  0.3021664270680978  0.5013953797113657
  0.7275258670294429  0.0311266908646547  0.5003706353385220
  0.9675409137742320  0.2711016504682491  0.5007109321173905
  0.9676508768999363  0.0309437101653972  0.5002943483530915
  0.0297281609181547  0.6353367763943244  0.4999930053903780
  0.0296234796097436  0.3952967292642292  0.5004258995929642
  0.2699020445310555  0.6354551509074561  0.5003279752511212
  0.0606766084346661  0.3642096755156538  0.5000727464778730
  0.3009885703509305  0.6043616817775431  0.5001875019120092
  0.3011069671850928  0.3642691596963676  0.4998740668054990
  0.3631532042907352  0.6354586197866250  0.5003432804184758
  0.3632850973518953  0.3953519644373532  0.5003674807373846
  0.6032388819011416  0.6352965772367444  0.5004779910787497
  0.3943954737178348  0.3642993569078934  0.5011759795385357
  0.6342891226748077  0.6041595086682258  0.5019346653456277
  0.6342730393327651  0.3642549442687628  0.5090979279143285
  0.6965648901643601  0.6352975884208785  0.5021392765195252
  0.6966042871388963  0.3954604817354160  0.5082563496263623
  0.9364602101934305  0.6352899113641021  0.5008081126978073
  0.7276853766351020  0.3643459799786117  0.5076377482908888
  0.9675680113480950  0.6042343505592973  0.5006923555094270
  0.9674879028967206  0.3642145582564043  0.5012188463789082
  0.0298268535045490  0.9688330394074518  0.5002121079755304
  0.0297178416831813  0.7285559857632335  0.5000065795315892
  0.2701463886591016  0.9689951274149137  0.5000219340818381
  0.0608076374244150  0.6975215819353111  0.5000283813649808
  0.3011546444935239  0.9379346153485323  0.4998393639082286
  0.3009872233061460  0.6976169481872082  0.5001822928015928
  0.3633372166424676  0.9690121219594254  0.5002178163029396
  0.3631474097740324  0.7287065767358212  0.5002369460599921
  0.6033013956569583  0.9690403668385247  0.5000863910917069
  0.3942520013398397  0.6976086597963732  0.5002182620391229
  0.6343968775648888  0.9379657442723600  0.4999892540751826
  0.6343293576483463  0.6974873176578877  0.4999506832005760
  0.6964271335847220  0.9689725839391932  0.5001578423057405
  0.6964737970801983  0.7285642532666157  0.4998731485668105
  0.9365978160884917  0.9688196779979007  0.5001626693140784
  0.7276054244647977  0.6975011209736744  0.5006335921589167
  0.9676653606831906  0.9377520686847435  0.5001921733795205
  0.9675630340983298  0.6974770928350640  0.5003072000283578
  0.6561729380985006  0.3346828527195247  0.7093522215292432
  0.0678356616416937  0.1381314375338064  0.4996389358171410
  0.1938944472487315  0.2641146004296005  0.4995736920078885
  0.1369948552230833  0.0690369397901798  0.5006152314993043
  0.2630005088284610  0.1949877606239182  0.5011365253301606
  0.2631458017176815  0.0691619458141318  0.5003336730360265
  0.4014237117701831  0.2641772611060363  0.5025193017393333
  0.4016398499780114  0.1383415421296859  0.5034255876248039
  0.5277695369144596  0.2642245879073919  0.5014280526203726
  0.4705756681756427  0.0692541674134143  0.5034980449944705
  0.5969105189017289  0.1957688637521280  0.5194031277444415
  0.5963338863018341  0.0693341908761855  0.5012991356242898
  0.7341251516857216  0.2643430970284632  0.4981147480744927
  0.7343903863722634  0.1383700652119876  0.5018562160719351
  0.8603107856365024  0.2641296183709033  0.5027512903915721
  0.8036458719714865  0.0691334844864289  0.5000846178238156
  0.9295287038446114  0.1949577977682908  0.5010555283584553
  0.9296087507628960  0.0690065140665463  0.5006964344672000
  0.0678176633631470  0.5973539160920833  0.4988741005091074
  0.0677194529153028  0.4714298590135927  0.5000587284416036
  0.1938416099571443  0.5974215008124740  0.5010607635093840
  0.1369075320120369  0.4023542277803582  0.4998312955186752
  0.2629109299487284  0.5282866927404464  0.4998176248450408
  0.2630196819177982  0.4023282705546072  0.4995929680624062
  0.4011699302706098  0.5974044393046726  0.5010643036871789
  0.4012761365318580  0.4714295349465448  0.5001918432131792
  0.5272074589381358  0.5973060783435217  0.4993006107871230
  0.4704965825470703  0.4022147752788056  0.5021043063398315
  0.5963921028655905  0.5281577494194851  0.5036209788321393
  0.5964392713047016  0.4018352053872462  0.5138753381113590
  0.7344188761749870  0.5971833653759621  0.5045989163863180
  0.7343575953819598  0.4710267883104136  0.5068240060231308
  0.8603860789085199  0.5971567513655662  0.5014978957500063
  0.8032822849777308  0.4021118761774320  0.5103899385993952
  0.9294487851467852  0.5281498445079906  0.5013658653919125
  0.9293270208163674  0.4022418535790298  0.5021533779910282
  0.0678735770109642  0.9307603463811497  0.4999628505266290
  0.0677698304398843  0.8046987678135874  0.4999681634622192
  0.1939439150763128  0.9309000314581455  0.4999620726547458
  0.1369390539345267  0.7356110340971708  0.5005270392006490
  0.2630511254263792  0.8617559985972373  0.4993968661066009
  0.2629471293527327  0.7356552504414673  0.4999077917766831
  0.4013334350293318  0.9308935139438156  0.4987977510482147
  0.4011655278001576  0.8047716807568315  0.5005469828763954
  0.5271736356266467  0.9309401024138315  0.4993122655610120
  0.4703319298858798  0.7356709127202165  0.5000501586837309
  0.5962543814050911  0.8617644464675940  0.4999034197784888
  0.5962734499042397  0.7355378113141993  0.4997132197588791
  0.7345283528599733  0.9308592442310644  0.5006667525020836
  0.7344823308054567  0.8046733689624985  0.4992216283097966
  0.8604728876201527  0.9307572543842122  0.4997384737115191
  0.8036261752900853  0.7355563161391618  0.5000164715433936
  0.9296055711568372  0.8616525537200590  0.5001202860681637
  0.9295567696707733  0.7355502295313706  0.5003739555339159
  0.0677752106330139  0.2640716921508883  0.5000415921536174
  0.7225754717641326  0.3174651451170694  0.6685820370504870
  0.6703928556561093  0.4184539956142106  0.6727520801339146
  0.5715858813929877  0.2671769924089885  0.6719876327836021
  0.6606363444731808  0.3362267615751825  0.8148095615417238
  0.4990529695266399  0.3331099863564231  0.5062865423275886
  0.9986717007814001  0.1665325707778592  0.5003259887319409
  0.8319674629163193  0.1666293025044388  0.5021435796736748
  0.8316940835672400  0.3330729440148765  0.5044158111058283
  0.3320921077920851  0.4998931481387247  0.5005170360984974
  0.1653155380507151  0.4999098830445612  0.5004068957272655
  0.1653800281041935  0.6664707227692869  0.5005087026405638
  0.6652496047217937  0.4994081990319248  0.5081193044953447
  0.4988267795954747  0.4997675110020554  0.5026033636086618
  0.4986840220235733  0.6664232172883807  0.5004858286745278
  0.9986151089224129  0.4998076582571887  0.5016761555672251
  0.8318547842343916  0.4995629283673027  0.5053778814315316
  0.8320151385935166  0.6663666399982383  0.5025644903931226
  0.3321027519965609  0.8332565585857332  0.5004671334891115
  0.1653952806460198  0.8332518167925037  0.5003500765157184
  0.1654652211279009  0.9999843065689337  0.5004240692463815
  0.6653570203403246  0.8332214322045765  0.5002448332513726
  0.4986836153964403  0.8332788956926246  0.5006248883274674
  0.4988708479280446  0.0001126435775357  0.5020260939166915
  0.9986415899663492  0.8331636525778122  0.5005787978212682
  0.8320562542581988  0.8331725303698854  0.5003534473698054
  0.8320808701100001  0.9999421985652243  0.5004245213250933
  0.3322855942654911  0.1666422263700844  0.5028690041944365
  0.1653759306044063  0.1665550642580807  0.5003942782553309
  0.1653641515017929  0.3332059935643832  0.5000014593072376
  0.6651680303754675  0.1667920277127638  0.5056059368949878
  0.4993821902593498  0.1667543560083435  0.5080567481984081
 
  0.00000000E+00  0.00000000E+00  0.00000000E+00
  0.00000000E+00  0.00000000E+00  0.00000000E+00
  0.00000000E+00  0.00000000E+00  0.00000000E+00
  0.00000000E+00  0.00000000E+00  0.00000000E+00
  0.00000000E+00  0.00000000E+00  0.00000000E+00
  0.00000000E+00  0.00000000E+00  0.00000000E+00
  0.00000000E+00  0.00000000E+00  0.00000000E+00
  0.00000000E+00  0.00000000E+00  0.00000000E+00
  0.00000000E+00  0.00000000E+00  0.00000000E+00
  0.00000000E+00  0.00000000E+00  0.00000000E+00
  0.00000000E+00  0.00000000E+00  0.00000000E+00
  0.00000000E+00  0.00000000E+00  0.00000000E+00
  0.00000000E+00  0.00000000E+00  0.00000000E+00
  0.00000000E+00  0.00000000E+00  0.00000000E+00
  0.00000000E+00  0.00000000E+00  0.00000000E+00
  0.00000000E+00  0.00000000E+00  0.00000000E+00
  0.00000000E+00  0.00000000E+00  0.00000000E+00
  0.00000000E+00  0.00000000E+00  0.00000000E+00
  0.00000000E+00  0.00000000E+00  0.00000000E+00
  0.00000000E+00  0.00000000E+00  0.00000000E+00
  0.00000000E+00  0.00000000E+00  0.00000000E+00
  0.00000000E+00  0.00000000E+00  0.00000000E+00
  0.00000000E+00  0.00000000E+00  0.00000000E+00
  0.00000000E+00  0.00000000E+00  0.00000000E+00
  0.00000000E+00  0.00000000E+00  0.00000000E+00
  0.00000000E+00  0.00000000E+00  0.00000000E+00
  0.00000000E+00  0.00000000E+00  0.00000000E+00
  0.00000000E+00  0.00000000E+00  0.00000000E+00
  0.00000000E+00  0.00000000E+00  0.00000000E+00
  0.00000000E+00  0.00000000E+00  0.00000000E+00
  0.00000000E+00  0.00000000E+00  0.00000000E+00
  0.00000000E+00  0.00000000E+00  0.00000000E+00
  0.00000000E+00  0.00000000E+00  0.00000000E+00
  0.00000000E+00  0.00000000E+00  0.00000000E+00
  0.00000000E+00  0.00000000E+00  0.00000000E+00
  0.00000000E+00  0.00000000E+00  0.00000000E+00
  0.00000000E+00  0.00000000E+00  0.00000000E+00
  0.00000000E+00  0.00000000E+00  0.00000000E+00
  0.00000000E+00  0.00000000E+00  0.00000000E+00
  0.00000000E+00  0.00000000E+00  0.00000000E+00
  0.00000000E+00  0.00000000E+00  0.00000000E+00
  0.00000000E+00  0.00000000E+00  0.00000000E+00
  0.00000000E+00  0.00000000E+00  0.00000000E+00
  0.00000000E+00  0.00000000E+00  0.00000000E+00
  0.00000000E+00  0.00000000E+00  0.00000000E+00
  0.00000000E+00  0.00000000E+00  0.00000000E+00
  0.00000000E+00  0.00000000E+00  0.00000000E+00
  0.00000000E+00  0.00000000E+00  0.00000000E+00
  0.00000000E+00  0.00000000E+00  0.00000000E+00
  0.00000000E+00  0.00000000E+00  0.00000000E+00
  0.00000000E+00  0.00000000E+00  0.00000000E+00
  0.00000000E+00  0.00000000E+00  0.00000000E+00
  0.00000000E+00  0.00000000E+00  0.00000000E+00
  0.00000000E+00  0.00000000E+00  0.00000000E+00
  0.00000000E+00  0.00000000E+00  0.00000000E+00
  0.00000000E+00  0.00000000E+00  0.00000000E+00
  0.00000000E+00  0.00000000E+00  0.00000000E+00
  0.00000000E+00  0.00000000E+00  0.00000000E+00
  0.00000000E+00  0.00000000E+00  0.00000000E+00
  0.00000000E+00  0.00000000E+00  0.00000000E+00
  0.00000000E+00  0.00000000E+00  0.00000000E+00
  0.00000000E+00  0.00000000E+00  0.00000000E+00
  0.00000000E+00  0.00000000E+00  0.00000000E+00
  0.00000000E+00  0.00000000E+00  0.00000000E+00
  0.00000000E+00  0.00000000E+00  0.00000000E+00
  0.00000000E+00  0.00000000E+00  0.00000000E+00
  0.00000000E+00  0.00000000E+00  0.00000000E+00
  0.00000000E+00  0.00000000E+00  0.00000000E+00
  0.00000000E+00  0.00000000E+00  0.00000000E+00
  0.00000000E+00  0.00000000E+00  0.00000000E+00
  0.00000000E+00  0.00000000E+00  0.00000000E+00
  0.00000000E+00  0.00000000E+00  0.00000000E+00
  0.00000000E+00  0.00000000E+00  0.00000000E+00
  0.00000000E+00  0.00000000E+00  0.00000000E+00
  0.00000000E+00  0.00000000E+00  0.00000000E+00
  0.00000000E+00  0.00000000E+00  0.00000000E+00
  0.00000000E+00  0.00000000E+00  0.00000000E+00
  0.00000000E+00  0.00000000E+00  0.00000000E+00
  0.00000000E+00  0.00000000E+00  0.00000000E+00
  0.00000000E+00  0.00000000E+00  0.00000000E+00
  0.00000000E+00  0.00000000E+00  0.00000000E+00
  0.00000000E+00  0.00000000E+00  0.00000000E+00
  0.00000000E+00  0.00000000E+00  0.00000000E+00
  0.00000000E+00  0.00000000E+00  0.00000000E+00
  0.00000000E+00  0.00000000E+00  0.00000000E+00
  0.00000000E+00  0.00000000E+00  0.00000000E+00
  0.00000000E+00  0.00000000E+00  0.00000000E+00
  0.00000000E+00  0.00000000E+00  0.00000000E+00
  0.00000000E+00  0.00000000E+00  0.00000000E+00
  0.00000000E+00  0.00000000E+00  0.00000000E+00
  0.00000000E+00  0.00000000E+00  0.00000000E+00
  0.00000000E+00  0.00000000E+00  0.00000000E+00
  0.00000000E+00  0.00000000E+00  0.00000000E+00
  0.00000000E+00  0.00000000E+00  0.00000000E+00
  0.00000000E+00  0.00000000E+00  0.00000000E+00
  0.00000000E+00  0.00000000E+00  0.00000000E+00
  0.00000000E+00  0.00000000E+00  0.00000000E+00
  0.00000000E+00  0.00000000E+00  0.00000000E+00
  0.00000000E+00  0.00000000E+00  0.00000000E+00
  0.00000000E+00  0.00000000E+00  0.00000000E+00
  0.00000000E+00  0.00000000E+00  0.00000000E+00
  0.00000000E+00  0.00000000E+00  0.00000000E+00
  0.00000000E+00  0.00000000E+00  0.00000000E+00
  0.00000000E+00  0.00000000E+00  0.00000000E+00
  0.00000000E+00  0.00000000E+00  0.00000000E+00
  0.00000000E+00  0.00000000E+00  0.00000000E+00
  0.00000000E+00  0.00000000E+00  0.00000000E+00
  0.00000000E+00  0.00000000E+00  0.00000000E+00
  0.00000000E+00  0.00000000E+00  0.00000000E+00
  0.00000000E+00  0.00000000E+00  0.00000000E+00
  0.00000000E+00  0.00000000E+00  0.00000000E+00
  0.00000000E+00  0.00000000E+00  0.00000000E+00
  0.00000000E+00  0.00000000E+00  0.00000000E+00
  0.00000000E+00  0.00000000E+00  0.00000000E+00
  0.00000000E+00  0.00000000E+00  0.00000000E+00
  0.00000000E+00  0.00000000E+00  0.00000000E+00
  0.00000000E+00  0.00000000E+00  0.00000000E+00
  0.00000000E+00  0.00000000E+00  0.00000000E+00
  0.00000000E+00  0.00000000E+00  0.00000000E+00
  0.00000000E+00  0.00000000E+00  0.00000000E+00
  0.00000000E+00  0.00000000E+00  0.00000000E+00
  0.00000000E+00  0.00000000E+00  0.00000000E+00
  0.00000000E+00  0.00000000E+00  0.00000000E+00
  0.00000000E+00  0.00000000E+00  0.00000000E+00
  0.00000000E+00  0.00000000E+00  0.00000000E+00
  0.00000000E+00  0.00000000E+00  0.00000000E+00
  0.00000000E+00  0.00000000E+00  0.00000000E+00
  0.00000000E+00  0.00000000E+00  0.00000000E+00
  0.00000000E+00  0.00000000E+00  0.00000000E+00
  0.00000000E+00  0.00000000E+00  0.00000000E+00
  0.00000000E+00  0.00000000E+00  0.00000000E+00
  0.00000000E+00  0.00000000E+00  0.00000000E+00
  0.00000000E+00  0.00000000E+00  0.00000000E+00
  0.00000000E+00  0.00000000E+00  0.00000000E+00
  0.00000000E+00  0.00000000E+00  0.00000000E+00
  0.00000000E+00  0.00000000E+00  0.00000000E+00
  0.00000000E+00  0.00000000E+00  0.00000000E+00
  0.00000000E+00  0.00000000E+00  0.00000000E+00
  0.00000000E+00  0.00000000E+00  0.00000000E+00
  0.00000000E+00  0.00000000E+00  0.00000000E+00
