POSCAR.xyz                              
   1.00000000000000     
    26.2665004730000007    0.0000000000000000    0.0000000000000000
   -13.1328802900999992   22.7497470984000003    0.0000000000000000
     0.0000000000000000    0.0000000000000000   20.2017993926999999
   C    Al   S    Cl   Cu
    54     1    54     4    27
Direct
  0.0297308214897474  0.3022780423451404  0.4998578833070778
  0.0298058326494859  0.0619783177436479  0.4999936918849715
  0.2702196129391353  0.3022913715652981  0.4998143119757337
  0.0608305317198945  0.0308800749793839  0.5001251354353551
  0.3010435655891870  0.2709574455926696  0.4999673860670778
  0.3011342177670546  0.0311845839973641  0.4999803810502553
  0.3633811803610649  0.3020936299603130  0.5005804786506335
  0.3634384475627385  0.0623644767674011  0.5007506124733537
  0.6034349767317828  0.3021417629391108  0.5094023228731250
  0.3945181890684480  0.0312565144779679  0.5007421600224744
  0.6345458285476990  0.2711361190329047  0.5090964533095851
  0.6343982853798296  0.0312270057009825  0.5004503813914540
  0.6966016206128459  0.3021976109692258  0.5086730498382867
  0.6965569181070403  0.0622567644390388  0.5004180921565915
  0.9364451269359626  0.3021761932786577  0.5006305795765642
  0.7276365641609108  0.0310518027779063  0.4999323011591667
  0.9675573120560261  0.2710068371604525  0.4999787346537757
  0.9676699779905187  0.0309140512780202  0.5000944448865128
  0.0297719057030366  0.6353641402657640  0.4999376886362221
  0.0298428810511568  0.3954178257118238  0.4999762472301498
  0.2698941564933396  0.6355278021086875  0.5000896274208918
  0.0606578483319600  0.3640807480565969  0.4998493536260479
  0.3009294879943992  0.6044296300364399  0.4999956993099078
  0.3011654872797929  0.3641099946149630  0.4998200859245068
  0.3630656964249740  0.6354668992678352  0.5001394860158462
  0.3633577845896044  0.3954473735438650  0.4999742290086990
  0.6031179214821032  0.6352111382186715  0.5000264655902819
  0.3945106250111689  0.3642621146471254  0.5005819784395852
  0.6342735735728443  0.6040390756168553  0.5008905973797773
  0.6345827184511555  0.3643831358494176  0.5094912494592609
  0.6964944513400663  0.6351566644903981  0.5008724595798737
  0.6968068345821474  0.3954449095608423  0.5092902794475901
  0.9363717491936175  0.6352558770608741  0.5004158346636225
  0.7277113643452714  0.3643058105470718  0.5087958900110690
  0.9674381618320027  0.6041600146092284  0.5004028374285311
  0.9675025505322942  0.3642624673556212  0.5006437460705149
  0.0297474343525487  0.9688110772042486  0.4999951965903812
  0.0297520768820156  0.7284676851363232  0.4998732631306375
  0.2701955059011771  0.9690764840749673  0.4998007260388124
  0.0606650411044102  0.6974910351048821  0.4998725081346240
  0.3011138979188340  0.9380969275030477  0.4998035878795523
  0.3009954934608340  0.6976059735892497  0.5000029987060077
  0.3632815923069094  0.9689692890761170  0.4999851638771285
  0.3631083950125051  0.7286951854644304  0.5001084031298837
  0.6031900273831784  0.9689425928307706  0.4999345437771517
  0.3941884690987045  0.6976065301728145  0.5000008819159608
  0.6344146214072416  0.9379941849162784  0.4998633528061534
  0.6344205766489245  0.6973830233247272  0.4997996263898885
  0.6963153571409487  0.9689130597908674  0.4998691697700953
  0.6963379125844690  0.7283592337341056  0.4997931956568526
  0.9365612598178449  0.9688125760314428  0.5000030993488060
  0.7276532559906259  0.6974971796574363  0.5000141298295052
  0.9676192221330864  0.9377164122405963  0.5001183126093693
  0.9675578305257946  0.6975465812513515  0.4999281988080914
  0.6557799959048157  0.3343750880362433  0.7134932501894181
  0.0678444227814800  0.1380803285108644  0.4996178911887747
  0.1936632720913953  0.2641191385698786  0.5000319457538344
  0.1369257184797702  0.0690049833670602  0.5007171203852497
  0.2629600167898619  0.1950048470482835  0.4997397239301019
  0.2629914281966944  0.0690108436609836  0.4995682595627736
  0.4013821718455750  0.2643575891467403  0.5016020897715120
  0.4015371429125488  0.1381106926545946  0.5019918529503621
  0.5279183108039686  0.2645187246562284  0.5104143256618705
  0.4703395734312046  0.0693450275141415  0.5019230341590472
  0.5966848036684997  0.1955048379815526  0.5096214874445866
  0.5966247363404563  0.0693075988620250  0.5013104826545044
  0.7342356409004686  0.2643255694908200  0.5077824085357934
  0.7344160608826926  0.1380893851368274  0.5011323624361959
  0.8605808700722155  0.2644665748226230  0.5016776113779891
  0.8036634331280739  0.0689466290662722  0.4996700349015245
  0.9297012082090820  0.1950228758836350  0.4995944926288018
  0.9295423711086227  0.0689649267732404  0.5006015072725355
  0.0678297649799011  0.5974378081384835  0.4996661748027577
  0.0679925086868086  0.4714840398513895  0.4995871572957413
  0.1938506157707215  0.5975345262281444  0.5005722689958528
  0.1372087919735374  0.4024174359106187  0.5000460240679661
  0.2629688518436638  0.5283957030495732  0.4996117259614036
  0.2628545868503783  0.4023624823274967  0.5000474988040144
  0.4010512204566081  0.5973370979789003  0.5007482425334501
  0.4012442621806754  0.4714830996124804  0.4997427824110156
  0.5271424778073369  0.5974526077666115  0.4995669075691239
  0.4703191880958894  0.4020035421935172  0.5015768717416175
  0.5967062074527701  0.5283843574195711  0.5023047761866709
  0.5967068464977903  0.4019284035644233  0.5103048572048617
  0.7341129561189083  0.5971410381590346  0.5022426086113838
  0.7344237904726704  0.4708117475741507  0.5101449768105376
  0.8605545003322621  0.5972534293560162  0.5012158395999268
  0.8031555709017958  0.4020335101350607  0.5081769249113263
  0.9294460065307967  0.5283972118168474  0.5010962623168750
  0.9293856824751883  0.4020214184911751  0.5017596552448919
  0.0676892132969448  0.9307094649311222  0.4995932002304846
  0.0680039297028103  0.8049977849500117  0.5001926965802483
  0.1936877158110440  0.9308313228610566  0.5000119528844650
  0.1371897554219334  0.7358515419122045  0.5001408970357272
  0.2628415578838637  0.8615335848460087  0.4999773105229803
  0.2629761562345823  0.7356425479970973  0.4996797554371560
  0.4010822995053515  0.9306779113987574  0.4995709383470615
  0.4012261771316304  0.8048367947901738  0.5006218092230657
  0.5271487774463574  0.9308636567094435  0.4996193802081105
  0.4703067247501250  0.7356967239953442  0.4996060049519210
  0.5961661398333185  0.8614977357119599  0.5001637898653010
  0.5960851936824154  0.7356763376785438  0.4999390122167138
  0.7344386802389365  0.9305358545730699  0.5001909437003907
  0.7345827105452972  0.8049968786334059  0.4999057584334118
  0.8604457179084674  0.9308226541025338  0.4996551556990504
  0.8036060576576336  0.7356914616780164  0.4995787943115629
  0.9295730030342088  0.8616594951997675  0.5006675796811038
  0.9296193065436855  0.7356406277183799  0.4996236896090516
  0.0678902163880124  0.2639545921966235  0.5000829290451717
  0.7206188280189968  0.3167641303420101  0.6697390494563679
  0.6696824847802179  0.4177807989874143  0.6771829643449063
  0.5699319517781987  0.2675754959377262  0.6797197479345967
  0.6644983826045398  0.3367955706687776  0.8183990282044642
  0.4994152404844471  0.3331602335712318  0.5067473612946398
  0.9988091340348249  0.1663951908841664  0.5004159987753534
  0.8321127026250686  0.1667939826830581  0.5017164506614979
  0.8313264467543325  0.3331578126166334  0.5055482402439934
  0.3317836541478867  0.4997263218860055  0.5005321703374532
  0.1656593716620631  0.4999663808187718  0.5003972683328253
  0.1655006782141892  0.6667658622233599  0.5004709664779509
  0.6654756373253357  0.4989729150158987  0.5073372078876480
  0.4990237088580088  0.4997691540749932  0.5022511250034974
  0.4985571168640120  0.6666365306466545  0.5004849716309512
  0.9984670608586178  0.4996287884271778  0.5016708881501118
  0.8315849753611263  0.4993020860921334  0.5054977883016243
  0.8318299142468966  0.6662595175074266  0.5019850883853283
  0.3318201974165068  0.8329684937608912  0.5004629111045770
  0.1654809221874503  0.8333874923389925  0.5004628879559050
  0.1651582097974403  0.9997870308982363  0.5004925022914941
  0.6652104669395972  0.8330298301225393  0.5004436559894977
  0.4987561544653769  0.8331737693361739  0.5004736874081531
  0.4987652819617198  0.0001802452180452  0.5018959233072295
  0.9987674595061227  0.8332342982306923  0.5005207049524401
  0.8320946165611139  0.8334491148405677  0.5004893033156758
  0.8319329093215996  0.9996881811177525  0.5004699011890383
  0.3323919826425880  0.1666245627882612  0.5021592720489352
  0.1652945796624532  0.1666461288634296  0.5005390292366076
  0.1653338450516650  0.3332463662988770  0.5004333680842363
  0.6656148100429978  0.1671799924232145  0.5055450845780688
  0.4995765434412122  0.1674732925776389  0.5069337072924875
 
  0.00000000E+00  0.00000000E+00  0.00000000E+00
  0.00000000E+00  0.00000000E+00  0.00000000E+00
  0.00000000E+00  0.00000000E+00  0.00000000E+00
  0.00000000E+00  0.00000000E+00  0.00000000E+00
  0.00000000E+00  0.00000000E+00  0.00000000E+00
  0.00000000E+00  0.00000000E+00  0.00000000E+00
  0.00000000E+00  0.00000000E+00  0.00000000E+00
  0.00000000E+00  0.00000000E+00  0.00000000E+00
  0.00000000E+00  0.00000000E+00  0.00000000E+00
  0.00000000E+00  0.00000000E+00  0.00000000E+00
  0.00000000E+00  0.00000000E+00  0.00000000E+00
  0.00000000E+00  0.00000000E+00  0.00000000E+00
  0.00000000E+00  0.00000000E+00  0.00000000E+00
  0.00000000E+00  0.00000000E+00  0.00000000E+00
  0.00000000E+00  0.00000000E+00  0.00000000E+00
  0.00000000E+00  0.00000000E+00  0.00000000E+00
  0.00000000E+00  0.00000000E+00  0.00000000E+00
  0.00000000E+00  0.00000000E+00  0.00000000E+00
  0.00000000E+00  0.00000000E+00  0.00000000E+00
  0.00000000E+00  0.00000000E+00  0.00000000E+00
  0.00000000E+00  0.00000000E+00  0.00000000E+00
  0.00000000E+00  0.00000000E+00  0.00000000E+00
  0.00000000E+00  0.00000000E+00  0.00000000E+00
  0.00000000E+00  0.00000000E+00  0.00000000E+00
  0.00000000E+00  0.00000000E+00  0.00000000E+00
  0.00000000E+00  0.00000000E+00  0.00000000E+00
  0.00000000E+00  0.00000000E+00  0.00000000E+00
  0.00000000E+00  0.00000000E+00  0.00000000E+00
  0.00000000E+00  0.00000000E+00  0.00000000E+00
  0.00000000E+00  0.00000000E+00  0.00000000E+00
  0.00000000E+00  0.00000000E+00  0.00000000E+00
  0.00000000E+00  0.00000000E+00  0.00000000E+00
  0.00000000E+00  0.00000000E+00  0.00000000E+00
  0.00000000E+00  0.00000000E+00  0.00000000E+00
  0.00000000E+00  0.00000000E+00  0.00000000E+00
  0.00000000E+00  0.00000000E+00  0.00000000E+00
  0.00000000E+00  0.00000000E+00  0.00000000E+00
  0.00000000E+00  0.00000000E+00  0.00000000E+00
  0.00000000E+00  0.00000000E+00  0.00000000E+00
  0.00000000E+00  0.00000000E+00  0.00000000E+00
  0.00000000E+00  0.00000000E+00  0.00000000E+00
  0.00000000E+00  0.00000000E+00  0.00000000E+00
  0.00000000E+00  0.00000000E+00  0.00000000E+00
  0.00000000E+00  0.00000000E+00  0.00000000E+00
  0.00000000E+00  0.00000000E+00  0.00000000E+00
  0.00000000E+00  0.00000000E+00  0.00000000E+00
  0.00000000E+00  0.00000000E+00  0.00000000E+00
  0.00000000E+00  0.00000000E+00  0.00000000E+00
  0.00000000E+00  0.00000000E+00  0.00000000E+00
  0.00000000E+00  0.00000000E+00  0.00000000E+00
  0.00000000E+00  0.00000000E+00  0.00000000E+00
  0.00000000E+00  0.00000000E+00  0.00000000E+00
  0.00000000E+00  0.00000000E+00  0.00000000E+00
  0.00000000E+00  0.00000000E+00  0.00000000E+00
  0.00000000E+00  0.00000000E+00  0.00000000E+00
  0.00000000E+00  0.00000000E+00  0.00000000E+00
  0.00000000E+00  0.00000000E+00  0.00000000E+00
  0.00000000E+00  0.00000000E+00  0.00000000E+00
  0.00000000E+00  0.00000000E+00  0.00000000E+00
  0.00000000E+00  0.00000000E+00  0.00000000E+00
  0.00000000E+00  0.00000000E+00  0.00000000E+00
  0.00000000E+00  0.00000000E+00  0.00000000E+00
  0.00000000E+00  0.00000000E+00  0.00000000E+00
  0.00000000E+00  0.00000000E+00  0.00000000E+00
  0.00000000E+00  0.00000000E+00  0.00000000E+00
  0.00000000E+00  0.00000000E+00  0.00000000E+00
  0.00000000E+00  0.00000000E+00  0.00000000E+00
  0.00000000E+00  0.00000000E+00  0.00000000E+00
  0.00000000E+00  0.00000000E+00  0.00000000E+00
  0.00000000E+00  0.00000000E+00  0.00000000E+00
  0.00000000E+00  0.00000000E+00  0.00000000E+00
  0.00000000E+00  0.00000000E+00  0.00000000E+00
  0.00000000E+00  0.00000000E+00  0.00000000E+00
  0.00000000E+00  0.00000000E+00  0.00000000E+00
  0.00000000E+00  0.00000000E+00  0.00000000E+00
  0.00000000E+00  0.00000000E+00  0.00000000E+00
  0.00000000E+00  0.00000000E+00  0.00000000E+00
  0.00000000E+00  0.00000000E+00  0.00000000E+00
  0.00000000E+00  0.00000000E+00  0.00000000E+00
  0.00000000E+00  0.00000000E+00  0.00000000E+00
  0.00000000E+00  0.00000000E+00  0.00000000E+00
  0.00000000E+00  0.00000000E+00  0.00000000E+00
  0.00000000E+00  0.00000000E+00  0.00000000E+00
  0.00000000E+00  0.00000000E+00  0.00000000E+00
  0.00000000E+00  0.00000000E+00  0.00000000E+00
  0.00000000E+00  0.00000000E+00  0.00000000E+00
  0.00000000E+00  0.00000000E+00  0.00000000E+00
  0.00000000E+00  0.00000000E+00  0.00000000E+00
  0.00000000E+00  0.00000000E+00  0.00000000E+00
  0.00000000E+00  0.00000000E+00  0.00000000E+00
  0.00000000E+00  0.00000000E+00  0.00000000E+00
  0.00000000E+00  0.00000000E+00  0.00000000E+00
  0.00000000E+00  0.00000000E+00  0.00000000E+00
  0.00000000E+00  0.00000000E+00  0.00000000E+00
  0.00000000E+00  0.00000000E+00  0.00000000E+00
  0.00000000E+00  0.00000000E+00  0.00000000E+00
  0.00000000E+00  0.00000000E+00  0.00000000E+00
  0.00000000E+00  0.00000000E+00  0.00000000E+00
  0.00000000E+00  0.00000000E+00  0.00000000E+00
  0.00000000E+00  0.00000000E+00  0.00000000E+00
  0.00000000E+00  0.00000000E+00  0.00000000E+00
  0.00000000E+00  0.00000000E+00  0.00000000E+00
  0.00000000E+00  0.00000000E+00  0.00000000E+00
  0.00000000E+00  0.00000000E+00  0.00000000E+00
  0.00000000E+00  0.00000000E+00  0.00000000E+00
  0.00000000E+00  0.00000000E+00  0.00000000E+00
  0.00000000E+00  0.00000000E+00  0.00000000E+00
  0.00000000E+00  0.00000000E+00  0.00000000E+00
  0.00000000E+00  0.00000000E+00  0.00000000E+00
  0.00000000E+00  0.00000000E+00  0.00000000E+00
  0.00000000E+00  0.00000000E+00  0.00000000E+00
  0.00000000E+00  0.00000000E+00  0.00000000E+00
  0.00000000E+00  0.00000000E+00  0.00000000E+00
  0.00000000E+00  0.00000000E+00  0.00000000E+00
  0.00000000E+00  0.00000000E+00  0.00000000E+00
  0.00000000E+00  0.00000000E+00  0.00000000E+00
  0.00000000E+00  0.00000000E+00  0.00000000E+00
  0.00000000E+00  0.00000000E+00  0.00000000E+00
  0.00000000E+00  0.00000000E+00  0.00000000E+00
  0.00000000E+00  0.00000000E+00  0.00000000E+00
  0.00000000E+00  0.00000000E+00  0.00000000E+00
  0.00000000E+00  0.00000000E+00  0.00000000E+00
  0.00000000E+00  0.00000000E+00  0.00000000E+00
  0.00000000E+00  0.00000000E+00  0.00000000E+00
  0.00000000E+00  0.00000000E+00  0.00000000E+00
  0.00000000E+00  0.00000000E+00  0.00000000E+00
  0.00000000E+00  0.00000000E+00  0.00000000E+00
  0.00000000E+00  0.00000000E+00  0.00000000E+00
  0.00000000E+00  0.00000000E+00  0.00000000E+00
  0.00000000E+00  0.00000000E+00  0.00000000E+00
  0.00000000E+00  0.00000000E+00  0.00000000E+00
  0.00000000E+00  0.00000000E+00  0.00000000E+00
  0.00000000E+00  0.00000000E+00  0.00000000E+00
  0.00000000E+00  0.00000000E+00  0.00000000E+00
  0.00000000E+00  0.00000000E+00  0.00000000E+00
  0.00000000E+00  0.00000000E+00  0.00000000E+00
  0.00000000E+00  0.00000000E+00  0.00000000E+00
  0.00000000E+00  0.00000000E+00  0.00000000E+00
  0.00000000E+00  0.00000000E+00  0.00000000E+00
  0.00000000E+00  0.00000000E+00  0.00000000E+00
