POSCAR.xyz                              
   1.00000000000000     
    26.2665004730000007    0.0000000000000000    0.0000000000000000
   -13.1328802900999992   22.7497470984000003    0.0000000000000000
     0.0000000000000000    0.0000000000000000   20.2017993926999999
   C    Al   S    Cl   Cu
    54     1    54     4    27
Direct
  0.0297309731581905  0.3021411530014411  0.5001510340458265
  0.0297721996571286  0.0619910373809029  0.5001778464055096
  0.2701324804281418  0.3021259193293884  0.5000747270979484
  0.0608593839330282  0.0309593256590519  0.5003113110595447
  0.3012297177918557  0.2710610234071969  0.5004317238638194
  0.3011655121998658  0.0311331525617215  0.5004839587883603
  0.3633657130588427  0.3021274327764832  0.5011180535523633
  0.3633000503518478  0.0622152804796693  0.5013575277652969
  0.6031163688479494  0.3020309792084549  0.5096204698294238
  0.3944010368404471  0.0311551886471010  0.5013486133097723
  0.6342312148279782  0.2709376011738898  0.5099802967007481
  0.6342882233371706  0.0310183064101299  0.5008342090481551
  0.6964540866921050  0.3020330190326541  0.5079866096937942
  0.6964655702758744  0.0621177493080558  0.5008264996379203
  0.9364926303817819  0.3020973824860154  0.5010976316817123
  0.7275149981423944  0.0310419853099787  0.5003090502122711
  0.9676129825213229  0.2710952420336269  0.5004112116725403
  0.9676455155350494  0.0309216948585563  0.5002907403287915
  0.0297162472776149  0.6354118418778038  0.5002562641087746
  0.0296902558374151  0.3953221280698748  0.5003945356233210
  0.2699239324859483  0.6354679831007300  0.5002724731216571
  0.0608015661461976  0.3642975083323831  0.5001424902762514
  0.3010084130966868  0.6044220304034172  0.5001664835686659
  0.3012037441930711  0.3642812278415029  0.5000881333864410
  0.3631573237973127  0.6355017025834621  0.5003051688983203
  0.3633706168278013  0.3953650886485477  0.5004298331262444
  0.6032162491317380  0.6352148447680662  0.5005554974274207
  0.3944579785217974  0.3643180496992855  0.5011036497247096
  0.6343364470263418  0.6041827639933885  0.5015799017674144
  0.6342863525963899  0.3643264779970427  0.5102297715810064
  0.6965069002928881  0.6352909809669812  0.5015709262397060
  0.6965598687580725  0.3954906107795529  0.5096917348039753
  0.9364570338493550  0.6353642042682973  0.5007689116772419
  0.7276441482870605  0.3644104253523783  0.5087802591810676
  0.9675749615859971  0.6042969539214428  0.5007606521870026
  0.9675821017013196  0.3642944411733362  0.5010932073888222
  0.0297899774421814  0.9688011981794423  0.5001982739318822
  0.0296903399963851  0.7286229446245238  0.5001240627375514
  0.2700846988555055  0.9689776679691788  0.5001051987465805
  0.0607955214446401  0.6975673475835358  0.5001340070246262
  0.3011706855203495  0.9379375524232211  0.5000863811794025
  0.3010001660130340  0.6976413295259938  0.5001745285971310
  0.3633365277217065  0.9690382384845870  0.5004183257526510
  0.3631293503693442  0.7286997470547145  0.5002785274371219
  0.6032469091138698  0.9689005080497918  0.5002993842314623
  0.3942331518303403  0.6976644158841386  0.5001814535617775
  0.6343088228363676  0.9378194936930505  0.5001381727755020
  0.6342848563242985  0.6974025464344583  0.5001064604253501
  0.6964601267615116  0.9688999492572055  0.5001588493503066
  0.6964403701439690  0.7284981999482510  0.5000680142462262
  0.9365658084863098  0.9687578302644645  0.5001848509589448
  0.7275640965558181  0.6974243288441124  0.5005022051937671
  0.9676575678087626  0.9377330042634737  0.5002963697304476
  0.9675476507821305  0.6975234984213623  0.5002896465513433
  0.6560502093652585  0.3350570028051416  0.7118606361017675
  0.0678445424037910  0.1381113571650418  0.4996860886178271
  0.1939943602443109  0.2640854606063727  0.4998206746909944
  0.1369759593908035  0.0690155434825585  0.5007895931852586
  0.2631247213220867  0.1949952230707515  0.4999973093707643
  0.2630751968945716  0.0691255982344580  0.4997429399353886
  0.4015545400173881  0.2642147306155720  0.5016861968818767
  0.4014737957347255  0.1383274713892520  0.5021254654936025
  0.5275580026543906  0.2643046966333962  0.5063509741677201
  0.4705327555279821  0.0693310113954751  0.5022283095025361
  0.5964847490071672  0.1953462645149450  0.5130012955159885
  0.5963243349903574  0.0692132463404734  0.5011977398833457
  0.7341888902288315  0.2643005907027041  0.5027360165718298
  0.7343897963395564  0.1382599059076671  0.5011043026682169
  0.8603437610905788  0.2641400556378780  0.5017180006164510
  0.8036104247757921  0.0690349980861647  0.4997264604852449
  0.9296004677920772  0.1949919647037614  0.4998718239968027
  0.9295842563793694  0.0689748484970779  0.5007444237359734
  0.0678139016165923  0.5974370893766761  0.4995713261654336
  0.0677682733821913  0.4714226752799413  0.4997774671672206
  0.1938267338948639  0.5974267929181316  0.5007231201990385
  0.1369714434166463  0.4023584594395156  0.4999637893335865
  0.2629781798032261  0.5283072629367495  0.4997173692457687
  0.2631236208400171  0.4023267931309006  0.4998276468860649
  0.4012061066185381  0.5974614537524567  0.5008583876181200
  0.4013296426806121  0.4714256140022160  0.4999492767759239
  0.5271892003988841  0.5972533641802684  0.4996478189652175
  0.4705804308792117  0.4022587513371584  0.5016043975606617
  0.5964241385795731  0.5280742164680072  0.5025373787045417
  0.5964458240907082  0.4020767861628909  0.5111211339815517
  0.7344728102511994  0.5971541579381801  0.5026471411865917
  0.7344211235899951  0.4711267431700825  0.5089624732304646
  0.8603439503698236  0.5971825922878639  0.5010102204876690
  0.8032801658790429  0.4021821703836048  0.5086452205599015
  0.9294127779924615  0.5281763128869253  0.5009874849574140
  0.9293840216106241  0.4022475341669059  0.5017190504073914
  0.0678794924929293  0.9307764231979216  0.4997437942551728
  0.0677609926441684  0.8047516662021460  0.5001231116830127
  0.1939396961783720  0.9308972680979312  0.4998312521604890
  0.1369319158165500  0.7356655164679349  0.5002071928616268
  0.2630938864090422  0.8617959114555694  0.4997563354833293
  0.2629557232872768  0.7357019735892193  0.4997477770949288
  0.4013375201740687  0.9309614888378962  0.4994826605525512
  0.4011709110462040  0.8048078309894404  0.5006648998079913
  0.5271594945674417  0.9308385712817531  0.4996913630296169
  0.4703313855212744  0.7356955323806370  0.4997571831865758
  0.5962594311220829  0.8616772920213152  0.5000700451333748
  0.5962409125438248  0.7354619571944585  0.4997123101053078
  0.7345079462148525  0.9307905868629676  0.5002661367363629
  0.7344611070186691  0.8046106878245487  0.4996397916204288
  0.8604486344129405  0.9306854939265766  0.4997134441367932
  0.8035961827805385  0.7355168265166527  0.4996219775255927
  0.9296108532333365  0.8616256390078799  0.5006627765553909
  0.9295372339974189  0.7355848537530797  0.4998082769977717
  0.0678638853107542  0.2641187238227651  0.5000539406299228
  0.7219106399560529  0.3182368265302650  0.6680746463329557
  0.6715177547045273  0.4189560570665766  0.6734002445323848
  0.5703918922758704  0.2661825679966702  0.6787225616436485
  0.6610137362199526  0.3355880551416005  0.8175378343484884
  0.4991366572176883  0.3332362550652126  0.5067314162097064
  0.9987233875105374  0.1665325742894046  0.5000444303887109
  0.8319915545703576  0.1665820578844696  0.5013833554875006
  0.8317041360931667  0.3331559609433141  0.5058293964427119
  0.3321795632398962  0.4999310321154419  0.5001844401648200
  0.1653849116980602  0.4999122985828661  0.5000714124310981
  0.1653982537515524  0.6665387338168334  0.5001488060667910
  0.6654254265294534  0.4994928884888443  0.5084422642339502
  0.4988828297270764  0.4997595342541318  0.5017999155248571
  0.4986847574416655  0.6664316556569235  0.5001395773949781
  0.9986492549931951  0.4998529142468187  0.5013373128718276
  0.8317499604639643  0.4995763031368724  0.5057449484553055
  0.8320046515084027  0.6663845977078613  0.5016248096403216
  0.3321725987248910  0.8333343429074899  0.5001585119313282
  0.1654095750057020  0.8332798096103805  0.4999933530843112
  0.1654490983298685 -0.0000219833710733  0.5001331313176101
  0.6653515732940740  0.8331475720989432  0.4999299246045662
  0.4986720758341718  0.8332416158671794  0.5002114523262804
  0.4988335791769015  0.0000790535851328  0.5014854202727279
  0.9986675406180049  0.8332074066628166  0.5002116641032039
  0.8320424097270099  0.8331077174633947  0.5001013784061452
  0.8320618102876213  0.9998708143024233  0.5001109804160011
  0.3323071007768177  0.1666608573741484  0.5017787063297581
  0.1654392447092601  0.1665135784713071  0.5001380978651228
  0.1654824518276638  0.3332241821964804  0.4998939934207439
  0.6652750409881811  0.1668090673639925  0.5055391327267111
  0.4990785757315924  0.1669050532671182  0.5077273377892159
 
  0.00000000E+00  0.00000000E+00  0.00000000E+00
  0.00000000E+00  0.00000000E+00  0.00000000E+00
  0.00000000E+00  0.00000000E+00  0.00000000E+00
  0.00000000E+00  0.00000000E+00  0.00000000E+00
  0.00000000E+00  0.00000000E+00  0.00000000E+00
  0.00000000E+00  0.00000000E+00  0.00000000E+00
  0.00000000E+00  0.00000000E+00  0.00000000E+00
  0.00000000E+00  0.00000000E+00  0.00000000E+00
  0.00000000E+00  0.00000000E+00  0.00000000E+00
  0.00000000E+00  0.00000000E+00  0.00000000E+00
  0.00000000E+00  0.00000000E+00  0.00000000E+00
  0.00000000E+00  0.00000000E+00  0.00000000E+00
  0.00000000E+00  0.00000000E+00  0.00000000E+00
  0.00000000E+00  0.00000000E+00  0.00000000E+00
  0.00000000E+00  0.00000000E+00  0.00000000E+00
  0.00000000E+00  0.00000000E+00  0.00000000E+00
  0.00000000E+00  0.00000000E+00  0.00000000E+00
  0.00000000E+00  0.00000000E+00  0.00000000E+00
  0.00000000E+00  0.00000000E+00  0.00000000E+00
  0.00000000E+00  0.00000000E+00  0.00000000E+00
  0.00000000E+00  0.00000000E+00  0.00000000E+00
  0.00000000E+00  0.00000000E+00  0.00000000E+00
  0.00000000E+00  0.00000000E+00  0.00000000E+00
  0.00000000E+00  0.00000000E+00  0.00000000E+00
  0.00000000E+00  0.00000000E+00  0.00000000E+00
  0.00000000E+00  0.00000000E+00  0.00000000E+00
  0.00000000E+00  0.00000000E+00  0.00000000E+00
  0.00000000E+00  0.00000000E+00  0.00000000E+00
  0.00000000E+00  0.00000000E+00  0.00000000E+00
  0.00000000E+00  0.00000000E+00  0.00000000E+00
  0.00000000E+00  0.00000000E+00  0.00000000E+00
  0.00000000E+00  0.00000000E+00  0.00000000E+00
  0.00000000E+00  0.00000000E+00  0.00000000E+00
  0.00000000E+00  0.00000000E+00  0.00000000E+00
  0.00000000E+00  0.00000000E+00  0.00000000E+00
  0.00000000E+00  0.00000000E+00  0.00000000E+00
  0.00000000E+00  0.00000000E+00  0.00000000E+00
  0.00000000E+00  0.00000000E+00  0.00000000E+00
  0.00000000E+00  0.00000000E+00  0.00000000E+00
  0.00000000E+00  0.00000000E+00  0.00000000E+00
  0.00000000E+00  0.00000000E+00  0.00000000E+00
  0.00000000E+00  0.00000000E+00  0.00000000E+00
  0.00000000E+00  0.00000000E+00  0.00000000E+00
  0.00000000E+00  0.00000000E+00  0.00000000E+00
  0.00000000E+00  0.00000000E+00  0.00000000E+00
  0.00000000E+00  0.00000000E+00  0.00000000E+00
  0.00000000E+00  0.00000000E+00  0.00000000E+00
  0.00000000E+00  0.00000000E+00  0.00000000E+00
  0.00000000E+00  0.00000000E+00  0.00000000E+00
  0.00000000E+00  0.00000000E+00  0.00000000E+00
  0.00000000E+00  0.00000000E+00  0.00000000E+00
  0.00000000E+00  0.00000000E+00  0.00000000E+00
  0.00000000E+00  0.00000000E+00  0.00000000E+00
  0.00000000E+00  0.00000000E+00  0.00000000E+00
  0.00000000E+00  0.00000000E+00  0.00000000E+00
  0.00000000E+00  0.00000000E+00  0.00000000E+00
  0.00000000E+00  0.00000000E+00  0.00000000E+00
  0.00000000E+00  0.00000000E+00  0.00000000E+00
  0.00000000E+00  0.00000000E+00  0.00000000E+00
  0.00000000E+00  0.00000000E+00  0.00000000E+00
  0.00000000E+00  0.00000000E+00  0.00000000E+00
  0.00000000E+00  0.00000000E+00  0.00000000E+00
  0.00000000E+00  0.00000000E+00  0.00000000E+00
  0.00000000E+00  0.00000000E+00  0.00000000E+00
  0.00000000E+00  0.00000000E+00  0.00000000E+00
  0.00000000E+00  0.00000000E+00  0.00000000E+00
  0.00000000E+00  0.00000000E+00  0.00000000E+00
  0.00000000E+00  0.00000000E+00  0.00000000E+00
  0.00000000E+00  0.00000000E+00  0.00000000E+00
  0.00000000E+00  0.00000000E+00  0.00000000E+00
  0.00000000E+00  0.00000000E+00  0.00000000E+00
  0.00000000E+00  0.00000000E+00  0.00000000E+00
  0.00000000E+00  0.00000000E+00  0.00000000E+00
  0.00000000E+00  0.00000000E+00  0.00000000E+00
  0.00000000E+00  0.00000000E+00  0.00000000E+00
  0.00000000E+00  0.00000000E+00  0.00000000E+00
  0.00000000E+00  0.00000000E+00  0.00000000E+00
  0.00000000E+00  0.00000000E+00  0.00000000E+00
  0.00000000E+00  0.00000000E+00  0.00000000E+00
  0.00000000E+00  0.00000000E+00  0.00000000E+00
  0.00000000E+00  0.00000000E+00  0.00000000E+00
  0.00000000E+00  0.00000000E+00  0.00000000E+00
  0.00000000E+00  0.00000000E+00  0.00000000E+00
  0.00000000E+00  0.00000000E+00  0.00000000E+00
  0.00000000E+00  0.00000000E+00  0.00000000E+00
  0.00000000E+00  0.00000000E+00  0.00000000E+00
  0.00000000E+00  0.00000000E+00  0.00000000E+00
  0.00000000E+00  0.00000000E+00  0.00000000E+00
  0.00000000E+00  0.00000000E+00  0.00000000E+00
  0.00000000E+00  0.00000000E+00  0.00000000E+00
  0.00000000E+00  0.00000000E+00  0.00000000E+00
  0.00000000E+00  0.00000000E+00  0.00000000E+00
  0.00000000E+00  0.00000000E+00  0.00000000E+00
  0.00000000E+00  0.00000000E+00  0.00000000E+00
  0.00000000E+00  0.00000000E+00  0.00000000E+00
  0.00000000E+00  0.00000000E+00  0.00000000E+00
  0.00000000E+00  0.00000000E+00  0.00000000E+00
  0.00000000E+00  0.00000000E+00  0.00000000E+00
  0.00000000E+00  0.00000000E+00  0.00000000E+00
  0.00000000E+00  0.00000000E+00  0.00000000E+00
  0.00000000E+00  0.00000000E+00  0.00000000E+00
  0.00000000E+00  0.00000000E+00  0.00000000E+00
  0.00000000E+00  0.00000000E+00  0.00000000E+00
  0.00000000E+00  0.00000000E+00  0.00000000E+00
  0.00000000E+00  0.00000000E+00  0.00000000E+00
  0.00000000E+00  0.00000000E+00  0.00000000E+00
  0.00000000E+00  0.00000000E+00  0.00000000E+00
  0.00000000E+00  0.00000000E+00  0.00000000E+00
  0.00000000E+00  0.00000000E+00  0.00000000E+00
  0.00000000E+00  0.00000000E+00  0.00000000E+00
  0.00000000E+00  0.00000000E+00  0.00000000E+00
  0.00000000E+00  0.00000000E+00  0.00000000E+00
  0.00000000E+00  0.00000000E+00  0.00000000E+00
  0.00000000E+00  0.00000000E+00  0.00000000E+00
  0.00000000E+00  0.00000000E+00  0.00000000E+00
  0.00000000E+00  0.00000000E+00  0.00000000E+00
  0.00000000E+00  0.00000000E+00  0.00000000E+00
  0.00000000E+00  0.00000000E+00  0.00000000E+00
  0.00000000E+00  0.00000000E+00  0.00000000E+00
  0.00000000E+00  0.00000000E+00  0.00000000E+00
  0.00000000E+00  0.00000000E+00  0.00000000E+00
  0.00000000E+00  0.00000000E+00  0.00000000E+00
  0.00000000E+00  0.00000000E+00  0.00000000E+00
  0.00000000E+00  0.00000000E+00  0.00000000E+00
  0.00000000E+00  0.00000000E+00  0.00000000E+00
  0.00000000E+00  0.00000000E+00  0.00000000E+00
  0.00000000E+00  0.00000000E+00  0.00000000E+00
  0.00000000E+00  0.00000000E+00  0.00000000E+00
  0.00000000E+00  0.00000000E+00  0.00000000E+00
  0.00000000E+00  0.00000000E+00  0.00000000E+00
  0.00000000E+00  0.00000000E+00  0.00000000E+00
  0.00000000E+00  0.00000000E+00  0.00000000E+00
  0.00000000E+00  0.00000000E+00  0.00000000E+00
  0.00000000E+00  0.00000000E+00  0.00000000E+00
  0.00000000E+00  0.00000000E+00  0.00000000E+00
  0.00000000E+00  0.00000000E+00  0.00000000E+00
  0.00000000E+00  0.00000000E+00  0.00000000E+00
  0.00000000E+00  0.00000000E+00  0.00000000E+00
  0.00000000E+00  0.00000000E+00  0.00000000E+00
  0.00000000E+00  0.00000000E+00  0.00000000E+00
