POSCAR.xyz                              
   1.00000000000000     
    26.2665004730000007    0.0000000000000000    0.0000000000000000
   -13.1328802900999992   22.7497470984000003    0.0000000000000000
     0.0000000000000000    0.0000000000000000   20.2017993926999999
   C    Al   S    Cl   Cu
    54     1    54     4    27
Direct
  0.0297854812537085  0.3021563810722286  0.4999799029376272
  0.0298283757210883  0.0620313602474679  0.4999934627193455
  0.2700404587756001  0.3021627360803848  0.4999771718493571
  0.0609086411193560  0.0309605497776688  0.4999997532992657
  0.3010934815047213  0.2710557395753985  0.4999760238478326
  0.3010774321829801  0.0310390670468933  0.4999776292753276
  0.3632490693808512  0.3021690222011673  0.4999896846904414
  0.3632330531842160  0.0620852874077152  0.4999998084367067
  0.6032136516854738  0.3021115840505291  0.5009464318958333
  0.3942980268351122  0.0310229524644009  0.5000010587385690
  0.6343138957419215  0.2710027227727734  0.5009201914966012
  0.6343724960562817  0.0310182401207964  0.4999886707938194
  0.6965380871581083  0.3021042781568685  0.5008947560669260
  0.6964904085554229  0.0620770238006889  0.4999868566144574
  0.9365874085786875  0.3021783541699520  0.4999974785307670
  0.7276054542017373  0.0310362869744861  0.4999792611568565
  0.9676195788296753  0.2710554658185991  0.4999787311564927
  0.9676895628824157  0.0309529734513180  0.4999989390929850
  0.0297924761356745  0.6354145140573801  0.4999785526541424
  0.0297790502114946  0.3953929635165247  0.4999785944252687
  0.2699665456682148  0.6354951030541516  0.4999995334688810
  0.0608356878768753  0.3642919926677398  0.4999796270700807
  0.3010498925213294  0.6044306045409156  0.4999931410986535
  0.3011002080283862  0.3642996240304143  0.4999774905046668
  0.3631870755195576  0.6354974716208629  0.4999996404162571
  0.3632567301535151  0.3953921927684138  0.4999763147366287
  0.6032626305001347  0.6354084259301738  0.4999767212024726
  0.3942917389741631  0.3642751868138213  0.4999912550887741
  0.6343803272641214  0.6043778072865180  0.5000076288743435
  0.6343162361877319  0.3643191942146670  0.5009528396391115
  0.6965016567542864  0.6354297843113138  0.5000077621102269
  0.6965291296268840  0.3954363495886232  0.5009336335234315
  0.9365852375718009  0.6354366482559027  0.4999868673600685
  0.7276438375906485  0.3643339745239441  0.5009036327438249
  0.9676373374689421  0.6043757650921013  0.4999868780357360
  0.9676236592839085  0.3642784417610747  0.4999989585009926
  0.0298394988751255  0.9688272648184839  0.4999927158049408
  0.0297619046538780  0.7286321023137110  0.4999819944013539
  0.2700282519932505  0.9688938091149082  0.4999774796907747
  0.0608341033831252  0.6975578346288537  0.4999820335154801
  0.3011112071675943  0.9378239415169431  0.4999777167924652
  0.3010316690222791  0.6976298003991972  0.4999941752599779
  0.3632655096403076  0.9688849869092719  0.4999779322823485
  0.3631698303342495  0.7286911757775683  0.4999991048465789
  0.6032683229203987  0.9688774104150074  0.4999777827641895
  0.3942422147580368  0.6976191801738121  0.4999925200993600
  0.6343655074363328  0.9378215988443338  0.4999822082658992
  0.6343521727439286  0.6975524616519655  0.4999734940400029
  0.6965099581762073  0.9688884504448687  0.4999830781064429
  0.6964927403686868  0.7286122765052170  0.4999740784757150
  0.9366316165757976  0.9688294238661984  0.4999932926247977
  0.7276018161873160  0.6975718158308418  0.4999777419312186
  0.9676955156355111  0.9377514067066987  0.4999995098291606
  0.9676102892936429  0.6975747505790009  0.4999772176630406
  0.6559341073828515  0.3345659492081479  0.7475295725447708
  0.0678726951632933  0.1381232470178734  0.4999620707760097
  0.1939872678873185  0.2641321510969538  0.5000099521776334
  0.1370243301154026  0.0690205305708609  0.5000262217470831
  0.2630670935923541  0.1950211369119781  0.4999532504721745
  0.2630524661676601  0.0690760512801018  0.4999393344311451
  0.4013542945332440  0.2641129792635011  0.4999631765968672
  0.4013247662445082  0.1382368475374381  0.4999804382041436
  0.5274664279712611  0.2642393332457695  0.5005680452737494
  0.4704410012705486  0.0691433888429151  0.4999799637136125
  0.5964448235200100  0.1952548738426984  0.5004832102419300
  0.5963278521718748  0.0691388182418416  0.4999683661035789
  0.7344534370756187  0.2642322669118826  0.5004143314393944
  0.7345282859556189  0.1382239600532436  0.4999555835203016
  0.8604237300456217  0.2641130608794012  0.4999869531159251
  0.8036459732427058  0.0690699769280138  0.4999554952927415
  0.9295808596744499  0.1950194372732673  0.4999505467640379
  0.9296326654925237  0.0690080263098345  0.5000215887572385
  0.0678035511435984  0.5973696433817063  0.4999586174068315
  0.0677701672174578  0.4714124568379405  0.4999502316414313
  0.1938442494163995  0.5974312362202100  0.5000213348421604
  0.1368955721700814  0.4023183479301733  0.5000054039399400
  0.2629615334296560  0.5283047314668466  0.4999617677284630
  0.2630708529488263  0.4023040202447544  0.5000116974543124
  0.4012301439445974  0.5974304026301160  0.5000299588456788
  0.4012640409203496  0.4714081192321484  0.4999534363625698
  0.5272393117642399  0.5973728040251727  0.4999432167743590
  0.4704552404074316  0.4023219796351011  0.4999642743262716
  0.5963164648257208  0.5281862030648270  0.4999940737172349
  0.5964315904542729  0.4022299151764014  0.5005024720993458
  0.7345558278722352  0.5972986097929639  0.4999929172103593
  0.7344268566724964  0.4712225846317335  0.5005553194627946
  0.8604231085814911  0.5973193782423829  0.4999638001866589
  0.8034566490034504  0.4022364479949960  0.5004236386385265
  0.9295207324332647  0.5282180121910069  0.4999559860300931
  0.9295199446382526  0.4023168275479589  0.4999942938772067
  0.0679090112392527  0.9307561545669939  0.4999594232717728
  0.0677743685151395  0.8046646777277516  0.5000141767172877
  0.1939836965542640  0.9308693781983587  0.5000063105234157
  0.1368883586222583  0.7355907904207318  0.5000096737461946
  0.2630695286386275  0.8617950618403726  0.5000055207378241
  0.2629596283321371  0.7356800927138746  0.4999661155868150
  0.4012903546423774  0.9308766667481835  0.4999489198357081
  0.4012032075941356  0.8047952257670931  0.5000229637708170
  0.5272342839079197  0.9308755482945997  0.4999503268693818
  0.4703405984031503  0.7356782226830985  0.4999618075451024
  0.5963347119363797  0.8617775139004730  0.5000110740161862
  0.5963371554435025  0.7355606376970056  0.5000064443020001
  0.7345356369483775  0.9308489343550281  0.5000115175241086
  0.7344989148445079  0.8046469086926329  0.5000054670914585
  0.8605266197306065  0.9307683932937820  0.4999640348028515
  0.8036327147412705  0.7355709741332731  0.4999455595164539
  0.9296340618845095  0.8616482027111064  0.5000264191403984
  0.9295695027031498  0.7355767014003373  0.4999457452945326
  0.0678092073815658  0.2641277645500630  0.5000065826349439
  0.7212015125313409  0.3175234460621217  0.7039893750172604
  0.6710320979958341  0.4183678814113671  0.7110416695145784
  0.5700156208950844  0.2667124852759862  0.7153052983606597
  0.6610335861323283  0.3354667642477380  0.8535675182718864
  0.4987964779231112  0.3332121957926454  0.5013746246198063
  0.9987108696202758  0.1665718459992006  0.5000659941503826
  0.8320218941708003  0.1666116784629901  0.5002989871121379
  0.8320877379687058  0.3332144560197582  0.5013077468070534
  0.3321139702868812  0.4998789266965892  0.5000680721210982
  0.1653599270277173  0.4998786754504141  0.5000649501806278
  0.1653752499734404  0.6665159781353890  0.5000634085028532
  0.6654343444471544  0.4998693741754146  0.5016702794274969
  0.4988008282925511  0.4998233122610010  0.5003593961715779
  0.4987697937807415  0.6665111672405498  0.5000715451478672
  0.9986300515231583  0.4998322167261230  0.5002861644114053
  0.8320663239668589  0.4998849938918061  0.5011283588648949
  0.8320248000636077  0.6664246308491957  0.5003423413650114
  0.3321105620014334  0.8332743967659690  0.5000702896639906
  0.1654042739797659  0.8332258987482980  0.5000816913209926
  0.1654685394885754  0.9999194215537666  0.5000755681672681
  0.6654070611521148  0.8332183545135896  0.5000821554938427
  0.4987515824992184  0.8332726584004362  0.5000641943270853
  0.4988245874610736  0.0000183716976618  0.5003073973254482
  0.9987052732874918  0.8331759601493421  0.5000675247376967
  0.8320562084568009  0.8331728372107049  0.5000728683120351
  0.8320772311240147  0.9999141856944156  0.5000635530289260
  0.3321913913933603  0.1666208130113445  0.5003674626919692
  0.1654544622681910  0.1665697056648133  0.5000720096946061
  0.1654267876338999  0.3332154543327674  0.5000804356000415
  0.6654322268685544  0.1665890269769796  0.5011330317889902
  0.4987808833801061  0.1666004430129365  0.5015183050982424
 
  0.00000000E+00  0.00000000E+00  0.00000000E+00
  0.00000000E+00  0.00000000E+00  0.00000000E+00
  0.00000000E+00  0.00000000E+00  0.00000000E+00
  0.00000000E+00  0.00000000E+00  0.00000000E+00
  0.00000000E+00  0.00000000E+00  0.00000000E+00
  0.00000000E+00  0.00000000E+00  0.00000000E+00
  0.00000000E+00  0.00000000E+00  0.00000000E+00
  0.00000000E+00  0.00000000E+00  0.00000000E+00
  0.00000000E+00  0.00000000E+00  0.00000000E+00
  0.00000000E+00  0.00000000E+00  0.00000000E+00
  0.00000000E+00  0.00000000E+00  0.00000000E+00
  0.00000000E+00  0.00000000E+00  0.00000000E+00
  0.00000000E+00  0.00000000E+00  0.00000000E+00
  0.00000000E+00  0.00000000E+00  0.00000000E+00
  0.00000000E+00  0.00000000E+00  0.00000000E+00
  0.00000000E+00  0.00000000E+00  0.00000000E+00
  0.00000000E+00  0.00000000E+00  0.00000000E+00
  0.00000000E+00  0.00000000E+00  0.00000000E+00
  0.00000000E+00  0.00000000E+00  0.00000000E+00
  0.00000000E+00  0.00000000E+00  0.00000000E+00
  0.00000000E+00  0.00000000E+00  0.00000000E+00
  0.00000000E+00  0.00000000E+00  0.00000000E+00
  0.00000000E+00  0.00000000E+00  0.00000000E+00
  0.00000000E+00  0.00000000E+00  0.00000000E+00
  0.00000000E+00  0.00000000E+00  0.00000000E+00
  0.00000000E+00  0.00000000E+00  0.00000000E+00
  0.00000000E+00  0.00000000E+00  0.00000000E+00
  0.00000000E+00  0.00000000E+00  0.00000000E+00
  0.00000000E+00  0.00000000E+00  0.00000000E+00
  0.00000000E+00  0.00000000E+00  0.00000000E+00
  0.00000000E+00  0.00000000E+00  0.00000000E+00
  0.00000000E+00  0.00000000E+00  0.00000000E+00
  0.00000000E+00  0.00000000E+00  0.00000000E+00
  0.00000000E+00  0.00000000E+00  0.00000000E+00
  0.00000000E+00  0.00000000E+00  0.00000000E+00
  0.00000000E+00  0.00000000E+00  0.00000000E+00
  0.00000000E+00  0.00000000E+00  0.00000000E+00
  0.00000000E+00  0.00000000E+00  0.00000000E+00
  0.00000000E+00  0.00000000E+00  0.00000000E+00
  0.00000000E+00  0.00000000E+00  0.00000000E+00
  0.00000000E+00  0.00000000E+00  0.00000000E+00
  0.00000000E+00  0.00000000E+00  0.00000000E+00
  0.00000000E+00  0.00000000E+00  0.00000000E+00
  0.00000000E+00  0.00000000E+00  0.00000000E+00
  0.00000000E+00  0.00000000E+00  0.00000000E+00
  0.00000000E+00  0.00000000E+00  0.00000000E+00
  0.00000000E+00  0.00000000E+00  0.00000000E+00
  0.00000000E+00  0.00000000E+00  0.00000000E+00
  0.00000000E+00  0.00000000E+00  0.00000000E+00
  0.00000000E+00  0.00000000E+00  0.00000000E+00
  0.00000000E+00  0.00000000E+00  0.00000000E+00
  0.00000000E+00  0.00000000E+00  0.00000000E+00
  0.00000000E+00  0.00000000E+00  0.00000000E+00
  0.00000000E+00  0.00000000E+00  0.00000000E+00
  0.00000000E+00  0.00000000E+00  0.00000000E+00
  0.00000000E+00  0.00000000E+00  0.00000000E+00
  0.00000000E+00  0.00000000E+00  0.00000000E+00
  0.00000000E+00  0.00000000E+00  0.00000000E+00
  0.00000000E+00  0.00000000E+00  0.00000000E+00
  0.00000000E+00  0.00000000E+00  0.00000000E+00
  0.00000000E+00  0.00000000E+00  0.00000000E+00
  0.00000000E+00  0.00000000E+00  0.00000000E+00
  0.00000000E+00  0.00000000E+00  0.00000000E+00
  0.00000000E+00  0.00000000E+00  0.00000000E+00
  0.00000000E+00  0.00000000E+00  0.00000000E+00
  0.00000000E+00  0.00000000E+00  0.00000000E+00
  0.00000000E+00  0.00000000E+00  0.00000000E+00
  0.00000000E+00  0.00000000E+00  0.00000000E+00
  0.00000000E+00  0.00000000E+00  0.00000000E+00
  0.00000000E+00  0.00000000E+00  0.00000000E+00
  0.00000000E+00  0.00000000E+00  0.00000000E+00
  0.00000000E+00  0.00000000E+00  0.00000000E+00
  0.00000000E+00  0.00000000E+00  0.00000000E+00
  0.00000000E+00  0.00000000E+00  0.00000000E+00
  0.00000000E+00  0.00000000E+00  0.00000000E+00
  0.00000000E+00  0.00000000E+00  0.00000000E+00
  0.00000000E+00  0.00000000E+00  0.00000000E+00
  0.00000000E+00  0.00000000E+00  0.00000000E+00
  0.00000000E+00  0.00000000E+00  0.00000000E+00
  0.00000000E+00  0.00000000E+00  0.00000000E+00
  0.00000000E+00  0.00000000E+00  0.00000000E+00
  0.00000000E+00  0.00000000E+00  0.00000000E+00
  0.00000000E+00  0.00000000E+00  0.00000000E+00
  0.00000000E+00  0.00000000E+00  0.00000000E+00
  0.00000000E+00  0.00000000E+00  0.00000000E+00
  0.00000000E+00  0.00000000E+00  0.00000000E+00
  0.00000000E+00  0.00000000E+00  0.00000000E+00
  0.00000000E+00  0.00000000E+00  0.00000000E+00
  0.00000000E+00  0.00000000E+00  0.00000000E+00
  0.00000000E+00  0.00000000E+00  0.00000000E+00
  0.00000000E+00  0.00000000E+00  0.00000000E+00
  0.00000000E+00  0.00000000E+00  0.00000000E+00
  0.00000000E+00  0.00000000E+00  0.00000000E+00
  0.00000000E+00  0.00000000E+00  0.00000000E+00
  0.00000000E+00  0.00000000E+00  0.00000000E+00
  0.00000000E+00  0.00000000E+00  0.00000000E+00
  0.00000000E+00  0.00000000E+00  0.00000000E+00
  0.00000000E+00  0.00000000E+00  0.00000000E+00
  0.00000000E+00  0.00000000E+00  0.00000000E+00
  0.00000000E+00  0.00000000E+00  0.00000000E+00
  0.00000000E+00  0.00000000E+00  0.00000000E+00
  0.00000000E+00  0.00000000E+00  0.00000000E+00
  0.00000000E+00  0.00000000E+00  0.00000000E+00
  0.00000000E+00  0.00000000E+00  0.00000000E+00
  0.00000000E+00  0.00000000E+00  0.00000000E+00
  0.00000000E+00  0.00000000E+00  0.00000000E+00
  0.00000000E+00  0.00000000E+00  0.00000000E+00
  0.00000000E+00  0.00000000E+00  0.00000000E+00
  0.00000000E+00  0.00000000E+00  0.00000000E+00
  0.00000000E+00  0.00000000E+00  0.00000000E+00
  0.00000000E+00  0.00000000E+00  0.00000000E+00
  0.00000000E+00  0.00000000E+00  0.00000000E+00
  0.00000000E+00  0.00000000E+00  0.00000000E+00
  0.00000000E+00  0.00000000E+00  0.00000000E+00
  0.00000000E+00  0.00000000E+00  0.00000000E+00
  0.00000000E+00  0.00000000E+00  0.00000000E+00
  0.00000000E+00  0.00000000E+00  0.00000000E+00
  0.00000000E+00  0.00000000E+00  0.00000000E+00
  0.00000000E+00  0.00000000E+00  0.00000000E+00
  0.00000000E+00  0.00000000E+00  0.00000000E+00
  0.00000000E+00  0.00000000E+00  0.00000000E+00
  0.00000000E+00  0.00000000E+00  0.00000000E+00
  0.00000000E+00  0.00000000E+00  0.00000000E+00
  0.00000000E+00  0.00000000E+00  0.00000000E+00
  0.00000000E+00  0.00000000E+00  0.00000000E+00
  0.00000000E+00  0.00000000E+00  0.00000000E+00
  0.00000000E+00  0.00000000E+00  0.00000000E+00
  0.00000000E+00  0.00000000E+00  0.00000000E+00
  0.00000000E+00  0.00000000E+00  0.00000000E+00
  0.00000000E+00  0.00000000E+00  0.00000000E+00
  0.00000000E+00  0.00000000E+00  0.00000000E+00
  0.00000000E+00  0.00000000E+00  0.00000000E+00
  0.00000000E+00  0.00000000E+00  0.00000000E+00
  0.00000000E+00  0.00000000E+00  0.00000000E+00
  0.00000000E+00  0.00000000E+00  0.00000000E+00
  0.00000000E+00  0.00000000E+00  0.00000000E+00
  0.00000000E+00  0.00000000E+00  0.00000000E+00
  0.00000000E+00  0.00000000E+00  0.00000000E+00
  0.00000000E+00  0.00000000E+00  0.00000000E+00
  0.00000000E+00  0.00000000E+00  0.00000000E+00
