POSCAR.xyz                              
   1.00000000000000     
    26.2665004730000007    0.0000000000000000    0.0000000000000000
   -13.1328802900999992   22.7497470984000003    0.0000000000000000
     0.0000000000000000    0.0000000000000000   20.2017993926999999
   C    Al   S    Cl   Cu
    54     1    54     4    27
Direct
  0.0298049584501775  0.3021882480374736  0.5000119033328551
  0.0298470233755400  0.0620294177819773  0.4999970557602776
  0.2700532715238977  0.3022045374590935  0.5000142522328576
  0.0609144165982996  0.0309577506174167  0.4999987501932499
  0.3010042613610711  0.2710092283981806  0.4999889992057704
  0.3010172251519528  0.0310030188952867  0.4999895447976935
  0.3632607963285135  0.3021155337690103  0.4999516398317504
  0.3632663479641322  0.0621488863952229  0.4999572949887782
  0.6031754640997853  0.3020866967874984  0.5006270508810327
  0.3943773233248536  0.0310325158797403  0.4999615921859577
  0.6343045587231908  0.2709783228229892  0.5006239000677368
  0.6343424481760431  0.0310310464893630  0.4999605827988652
  0.6965480091253671  0.3021016674309002  0.5006573367746506
  0.6965567618223453  0.0621398118569839  0.4999594670472399
  0.9365304760472644  0.3021389196607435  0.4999607803079445
  0.7276550225581480  0.0310036247190760  0.4999922975144972
  0.9676486210047650  0.2710199932326265  0.4999916173497587
  0.9677155328012389  0.0309576495278174  0.4999997182243449
  0.0298628352122918  0.6354460376770040  0.4999946975267418
  0.0298754484931153  0.3954375771328066  0.4999931014346855
  0.2699765758780191  0.6355090633512814  0.4999995631283889
  0.0608396280598033  0.3642575807452781  0.5000118444478233
  0.3010462537398494  0.6044352932536011  0.4999968728280091
  0.3010935588224135  0.3642667596652606  0.5000137187142114
  0.3631788903335982  0.6354938967890963  0.4999986336169043
  0.3632389612740792  0.3954456567257364  0.4999916058074073
  0.6032198268452921  0.6354563047346188  0.4999910467862055
  0.3943760035930077  0.3643336460992539  0.4999541933451795
  0.6343197443810572  0.6043121942979834  0.4999590299818110
  0.6343122166248814  0.3643552515224550  0.5006385465758376
  0.6965567898801894  0.6354135869930523  0.4999599651517356
  0.6965918805833634  0.3955025787425775  0.5006552359966899
  0.9365237139354010  0.6354314564101623  0.4999567711372238
  0.7276862924484039  0.3643400705968998  0.5006556764714619
  0.9676197504317104  0.6043106957421356  0.4999597605537621
  0.9676303744027862  0.3643331300358092  0.4999624524661643
  0.0298338920415139  0.9688315012691605  0.4999961550653250
  0.0298111407169190  0.7286325686823069  0.5000115328313681
  0.2700377248894449  0.9688754552733644  0.5000138457505994
  0.0608432717789915  0.6975847941875647  0.5000116868501669
  0.3010838345702117  0.9378316133795879  0.5000133648442712
  0.3010551393142937  0.6976266737651671  0.4999970131305420
  0.3632214271357140  0.9688024934344844  0.4999958567972645
  0.3631873654345060  0.7286919072628619  0.4999991165981509
  0.6032308327340059  0.9688067061186433  0.4999921420403968
  0.3942548238377063  0.6976262098698465  0.4999964987433291
  0.6343898979439521  0.9378248026590171  0.5000110544484768
  0.6344057258394761  0.6975834528176997  0.5000134194129343
  0.6964806553808853  0.9688678972289501  0.5000116094263819
  0.6964839356264598  0.7286139329342807  0.5000139020694291
  0.9366392646455348  0.9688414184209413  0.4999969454925652
  0.7276696862130505  0.6976645145341569  0.4999921339056302
  0.9676963973884048  0.9377550920272807  0.4999989200397746
  0.9676639981759992  0.6976556016676494  0.4999883839082250
  0.6560752707578238  0.3346582482971495  0.7486459925897126
  0.0678978116626063  0.1381488560765199  0.4999758830856321
  0.1939321529894438  0.2641479850640495  0.4999962527386585
  0.1370458386785656  0.0690260347530341  0.4999985572731681
  0.2630186504984200  0.1949766728651958  0.4999614198135377
  0.2630133685370477  0.0690563636957729  0.4999551538396630
  0.4013517633972846  0.2641206532675958  0.4999023496273256
  0.4013598875238006  0.1382343078826475  0.4998945918833673
  0.5274241585837284  0.2642542324644137  0.5001884278113136
  0.4704599145710731  0.0691853446803617  0.4998956977862188
  0.5964058878844074  0.1951976842723209  0.5001246481592152
  0.5963556968504040  0.0691494618416551  0.4999157239846650
  0.7344431587957694  0.2641817143108701  0.5000922615145628
  0.7345170182698322  0.1382329728096740  0.4999091414703241
  0.8604217853942995  0.2641754949272773  0.4999104902553676
  0.8037019551308681  0.0690648897455794  0.4999663701892935
  0.9295871558163313  0.1949793073251119  0.4999652713323008
  0.9296372488512129  0.0690006734323248  0.4999979116937695
  0.0678248183129128  0.5973548016442801  0.4999678640440796
  0.0678395839216883  0.4714625484925185  0.4999651735638205
  0.1938403588670253  0.5974505144392537  0.4999985788809049
  0.1369656403179704  0.4023326526297543  0.4999947510419528
  0.2629535747565206  0.5282924085770450  0.4999761960244907
  0.2630304648779533  0.4023025377740277  0.4999969015501881
  0.4012004588704722  0.5974034705833022  0.4999998669339613
  0.4012722523565074  0.4714627602576403  0.4999628514891641
  0.5271946194680853  0.5974055945387505  0.4999584838456038
  0.4704691558401491  0.4022978923641134  0.4999046523221488
  0.5963534993750382  0.5281978820434230  0.4998959966779518
  0.5964056848450305  0.4022304217411098  0.5001206726007306
  0.7344820532620902  0.5972358184174358  0.4998960908977841
  0.7344609111486470  0.4712791896925512  0.5001657019685586
  0.8604245868142466  0.5973179023038047  0.4999131178345686
  0.8035219738461673  0.4022741363404208  0.5000894658477220
  0.9294739100216880  0.5282151990972854  0.4999087565662834
  0.9294833686236958  0.4022695448474017  0.4999135872989020
  0.0678839616451882  0.9307216602538152  0.4999748605335322
  0.0678340046511456  0.8047268369015019  0.4999979969488463
  0.1939306174845436  0.9308498130236805  0.4999950639158448
  0.1369606196054900  0.7356392687095823  0.4999956898600819
  0.2630215049291128  0.8617381459739585  0.4999949116386234
  0.2629595907139227  0.7356750698346591  0.4999778397298903
  0.4012438680591195  0.9307913998669378  0.4999623309925239
  0.4012226564520164  0.8048099852203027  0.4999981503916204
  0.5271931830083718  0.9308404617781456  0.4999632456751825
  0.4703722277886554  0.7356921203838452  0.4999759607847490
  0.5963227822250617  0.8617234903052431  0.4999963444331574
  0.5963331354980669  0.7355973191538852  0.4999958586005460
  0.7345165082465146  0.9307833034551306  0.4999965194602711
  0.7345281238424328  0.8047136311785335  0.4999957868749047
  0.8605138506125072  0.9307863753676019  0.4999765866876150
  0.8036954327702968  0.7356316123746738  0.4999593612771716
  0.9296293538447569  0.8616440210927815  0.4999992057196754
  0.9295873752976580  0.7356177811994065  0.4999597764527255
  0.0678215276595330  0.2640892822978140  0.4999949320328372
  0.7214443279929540  0.3173604266175549  0.7047061420539696
  0.6710935978039357  0.4188495389635029  0.7117970083995099
  0.5698143340637080  0.2664865923208111  0.7164337311741770
  0.6607297525706936  0.3352593747448148  0.8563731610751140
  0.4989829789902276  0.3331972726960225  0.5011612643123248
  0.9987189173094131  0.1665288092115602  0.5000428116615631
  0.8320413940095573  0.1666459591823789  0.5002150639673318
  0.8317970452056938  0.3331999294445789  0.5012095581071445
  0.3320476413470332  0.4998404428077402  0.5000444287506478
  0.1654185800379726  0.4999030025321657  0.5000421362000028
  0.1653969950044508  0.6665542083261787  0.5000410727511269
  0.6653843371871055  0.4995704271412651  0.5015200139953548
  0.4988294023393326  0.4998492649026282  0.5002495526031814
  0.4987427095089562  0.6665489825188849  0.5000467217176473
  0.9985954612422668  0.4997896301380937  0.5002033769743984
  0.8318238476962716  0.4996677755101630  0.5009770119542536
  0.8319928016757201  0.6664165053529000  0.5002456355878873
  0.3320497012260289  0.8331953906369861  0.5000453557134474
  0.1654232956336967  0.8332499261946077  0.5000414859787923
  0.1654123878700244  0.9998823394882740  0.5000493726949113
  0.6653818232099530  0.8331866684528794  0.5000411895788262
  0.4987696347484771  0.8332547474654437  0.5000426847924677
  0.4987845897466100  0.0000004681842569  0.5002152523493034
  0.9987174239331857  0.8331789126670612  0.5000445527664282
  0.8320844285547191  0.8332387856147115  0.5000468400759136
  0.8320587721151808  0.9998796254231413  0.5000414153145305
  0.3321844002086986  0.1665831679525392  0.5002691375482167
  0.1654347712019578  0.1665935730537938  0.5000466360010730
  0.1654018664487150  0.3332192277714301  0.5000404477991062
  0.6654153901953291  0.1667863281596100  0.5009659222177960
  0.4989929349847031  0.1668655803564852  0.5013654610046225
 
  0.00000000E+00  0.00000000E+00  0.00000000E+00
  0.00000000E+00  0.00000000E+00  0.00000000E+00
  0.00000000E+00  0.00000000E+00  0.00000000E+00
  0.00000000E+00  0.00000000E+00  0.00000000E+00
  0.00000000E+00  0.00000000E+00  0.00000000E+00
  0.00000000E+00  0.00000000E+00  0.00000000E+00
  0.00000000E+00  0.00000000E+00  0.00000000E+00
  0.00000000E+00  0.00000000E+00  0.00000000E+00
  0.00000000E+00  0.00000000E+00  0.00000000E+00
  0.00000000E+00  0.00000000E+00  0.00000000E+00
  0.00000000E+00  0.00000000E+00  0.00000000E+00
  0.00000000E+00  0.00000000E+00  0.00000000E+00
  0.00000000E+00  0.00000000E+00  0.00000000E+00
  0.00000000E+00  0.00000000E+00  0.00000000E+00
  0.00000000E+00  0.00000000E+00  0.00000000E+00
  0.00000000E+00  0.00000000E+00  0.00000000E+00
  0.00000000E+00  0.00000000E+00  0.00000000E+00
  0.00000000E+00  0.00000000E+00  0.00000000E+00
  0.00000000E+00  0.00000000E+00  0.00000000E+00
  0.00000000E+00  0.00000000E+00  0.00000000E+00
  0.00000000E+00  0.00000000E+00  0.00000000E+00
  0.00000000E+00  0.00000000E+00  0.00000000E+00
  0.00000000E+00  0.00000000E+00  0.00000000E+00
  0.00000000E+00  0.00000000E+00  0.00000000E+00
  0.00000000E+00  0.00000000E+00  0.00000000E+00
  0.00000000E+00  0.00000000E+00  0.00000000E+00
  0.00000000E+00  0.00000000E+00  0.00000000E+00
  0.00000000E+00  0.00000000E+00  0.00000000E+00
  0.00000000E+00  0.00000000E+00  0.00000000E+00
  0.00000000E+00  0.00000000E+00  0.00000000E+00
  0.00000000E+00  0.00000000E+00  0.00000000E+00
  0.00000000E+00  0.00000000E+00  0.00000000E+00
  0.00000000E+00  0.00000000E+00  0.00000000E+00
  0.00000000E+00  0.00000000E+00  0.00000000E+00
  0.00000000E+00  0.00000000E+00  0.00000000E+00
  0.00000000E+00  0.00000000E+00  0.00000000E+00
  0.00000000E+00  0.00000000E+00  0.00000000E+00
  0.00000000E+00  0.00000000E+00  0.00000000E+00
  0.00000000E+00  0.00000000E+00  0.00000000E+00
  0.00000000E+00  0.00000000E+00  0.00000000E+00
  0.00000000E+00  0.00000000E+00  0.00000000E+00
  0.00000000E+00  0.00000000E+00  0.00000000E+00
  0.00000000E+00  0.00000000E+00  0.00000000E+00
  0.00000000E+00  0.00000000E+00  0.00000000E+00
  0.00000000E+00  0.00000000E+00  0.00000000E+00
  0.00000000E+00  0.00000000E+00  0.00000000E+00
  0.00000000E+00  0.00000000E+00  0.00000000E+00
  0.00000000E+00  0.00000000E+00  0.00000000E+00
  0.00000000E+00  0.00000000E+00  0.00000000E+00
  0.00000000E+00  0.00000000E+00  0.00000000E+00
  0.00000000E+00  0.00000000E+00  0.00000000E+00
  0.00000000E+00  0.00000000E+00  0.00000000E+00
  0.00000000E+00  0.00000000E+00  0.00000000E+00
  0.00000000E+00  0.00000000E+00  0.00000000E+00
  0.00000000E+00  0.00000000E+00  0.00000000E+00
  0.00000000E+00  0.00000000E+00  0.00000000E+00
  0.00000000E+00  0.00000000E+00  0.00000000E+00
  0.00000000E+00  0.00000000E+00  0.00000000E+00
  0.00000000E+00  0.00000000E+00  0.00000000E+00
  0.00000000E+00  0.00000000E+00  0.00000000E+00
  0.00000000E+00  0.00000000E+00  0.00000000E+00
  0.00000000E+00  0.00000000E+00  0.00000000E+00
  0.00000000E+00  0.00000000E+00  0.00000000E+00
  0.00000000E+00  0.00000000E+00  0.00000000E+00
  0.00000000E+00  0.00000000E+00  0.00000000E+00
  0.00000000E+00  0.00000000E+00  0.00000000E+00
  0.00000000E+00  0.00000000E+00  0.00000000E+00
  0.00000000E+00  0.00000000E+00  0.00000000E+00
  0.00000000E+00  0.00000000E+00  0.00000000E+00
  0.00000000E+00  0.00000000E+00  0.00000000E+00
  0.00000000E+00  0.00000000E+00  0.00000000E+00
  0.00000000E+00  0.00000000E+00  0.00000000E+00
  0.00000000E+00  0.00000000E+00  0.00000000E+00
  0.00000000E+00  0.00000000E+00  0.00000000E+00
  0.00000000E+00  0.00000000E+00  0.00000000E+00
  0.00000000E+00  0.00000000E+00  0.00000000E+00
  0.00000000E+00  0.00000000E+00  0.00000000E+00
  0.00000000E+00  0.00000000E+00  0.00000000E+00
  0.00000000E+00  0.00000000E+00  0.00000000E+00
  0.00000000E+00  0.00000000E+00  0.00000000E+00
  0.00000000E+00  0.00000000E+00  0.00000000E+00
  0.00000000E+00  0.00000000E+00  0.00000000E+00
  0.00000000E+00  0.00000000E+00  0.00000000E+00
  0.00000000E+00  0.00000000E+00  0.00000000E+00
  0.00000000E+00  0.00000000E+00  0.00000000E+00
  0.00000000E+00  0.00000000E+00  0.00000000E+00
  0.00000000E+00  0.00000000E+00  0.00000000E+00
  0.00000000E+00  0.00000000E+00  0.00000000E+00
  0.00000000E+00  0.00000000E+00  0.00000000E+00
  0.00000000E+00  0.00000000E+00  0.00000000E+00
  0.00000000E+00  0.00000000E+00  0.00000000E+00
  0.00000000E+00  0.00000000E+00  0.00000000E+00
  0.00000000E+00  0.00000000E+00  0.00000000E+00
  0.00000000E+00  0.00000000E+00  0.00000000E+00
  0.00000000E+00  0.00000000E+00  0.00000000E+00
  0.00000000E+00  0.00000000E+00  0.00000000E+00
  0.00000000E+00  0.00000000E+00  0.00000000E+00
  0.00000000E+00  0.00000000E+00  0.00000000E+00
  0.00000000E+00  0.00000000E+00  0.00000000E+00
  0.00000000E+00  0.00000000E+00  0.00000000E+00
  0.00000000E+00  0.00000000E+00  0.00000000E+00
  0.00000000E+00  0.00000000E+00  0.00000000E+00
  0.00000000E+00  0.00000000E+00  0.00000000E+00
  0.00000000E+00  0.00000000E+00  0.00000000E+00
  0.00000000E+00  0.00000000E+00  0.00000000E+00
  0.00000000E+00  0.00000000E+00  0.00000000E+00
  0.00000000E+00  0.00000000E+00  0.00000000E+00
  0.00000000E+00  0.00000000E+00  0.00000000E+00
  0.00000000E+00  0.00000000E+00  0.00000000E+00
  0.00000000E+00  0.00000000E+00  0.00000000E+00
  0.00000000E+00  0.00000000E+00  0.00000000E+00
  0.00000000E+00  0.00000000E+00  0.00000000E+00
  0.00000000E+00  0.00000000E+00  0.00000000E+00
  0.00000000E+00  0.00000000E+00  0.00000000E+00
  0.00000000E+00  0.00000000E+00  0.00000000E+00
  0.00000000E+00  0.00000000E+00  0.00000000E+00
  0.00000000E+00  0.00000000E+00  0.00000000E+00
  0.00000000E+00  0.00000000E+00  0.00000000E+00
  0.00000000E+00  0.00000000E+00  0.00000000E+00
  0.00000000E+00  0.00000000E+00  0.00000000E+00
  0.00000000E+00  0.00000000E+00  0.00000000E+00
  0.00000000E+00  0.00000000E+00  0.00000000E+00
  0.00000000E+00  0.00000000E+00  0.00000000E+00
  0.00000000E+00  0.00000000E+00  0.00000000E+00
  0.00000000E+00  0.00000000E+00  0.00000000E+00
  0.00000000E+00  0.00000000E+00  0.00000000E+00
  0.00000000E+00  0.00000000E+00  0.00000000E+00
  0.00000000E+00  0.00000000E+00  0.00000000E+00
  0.00000000E+00  0.00000000E+00  0.00000000E+00
  0.00000000E+00  0.00000000E+00  0.00000000E+00
  0.00000000E+00  0.00000000E+00  0.00000000E+00
  0.00000000E+00  0.00000000E+00  0.00000000E+00
  0.00000000E+00  0.00000000E+00  0.00000000E+00
  0.00000000E+00  0.00000000E+00  0.00000000E+00
  0.00000000E+00  0.00000000E+00  0.00000000E+00
  0.00000000E+00  0.00000000E+00  0.00000000E+00
  0.00000000E+00  0.00000000E+00  0.00000000E+00
  0.00000000E+00  0.00000000E+00  0.00000000E+00
  0.00000000E+00  0.00000000E+00  0.00000000E+00
  0.00000000E+00  0.00000000E+00  0.00000000E+00
