POSCAR\(2)
1.0
       17.2999992371         0.0000000000         0.0000000000
       -8.6499996185        14.9822388247         0.0000000000
        0.0000000000         0.0000000000        20.0000000000
    N    C    H   Li
   36   24   12    1
Direct
S
     0.201780006         0.140570003         0.249300003 F F F
     0.358870013         0.192330007         0.255059981 F F F
     0.306970002         0.297620001         0.252460003 F F F
     0.053509994         0.290539996         0.249160004 F F F
     0.210870000         0.395269997         0.249640012 F F F
     0.106059998         0.447820007         0.250200009 F F F
     0.150859999         0.238759988         0.248810005 F F F
     0.261489989         0.043830000         0.250829983 F F F
     0.455519978         0.348340000         0.257340002 F F F
     0.702790034         0.141560008         0.247779989 F F F
     0.860230052         0.194199992         0.250139999 F F F
     0.807820039         0.299100013         0.248320007 F F F
     0.552540034         0.290420009         0.248720002 F F F
     0.710640055         0.395019997         0.251760006 F F F
     0.605070007         0.446170009         0.266149998 F F F
     0.651359980         0.239209988         0.246669984 F F F
     0.762130032         0.045099998         0.250889993 F F F
     0.956939975         0.350369979         0.249650002 F F F
     0.202710000         0.641129962         0.250180006 F F F
     0.360059984         0.693669947         0.249640012 F F F
     0.307440022         0.798400011         0.249149990 F F F
     0.053169976         0.789820007         0.248249984 F F F
     0.210480013         0.894729958         0.250110006 F F F
     0.105669994         0.947359948         0.247679996 F F F
     0.151050001         0.738569964         0.249620008 F F F
     0.262180010         0.544470035         0.250010014 F F F
     0.456570004         0.850179971         0.248810005 F F F
     0.703360044         0.642760005         0.266119981 F F F
     0.860090010         0.693909985         0.251679993 F F F
     0.806569962         0.798489954         0.248629999 F F F
     0.553789988         0.791289961         0.252449989 F F F
     0.711000020         0.896579987         0.255089998 F F F
     0.605690010         0.948350017         0.249300003 F F F
     0.651640015         0.740580020         0.257279992 F F F
     0.762910012         0.544470035         0.257649994 F F F
     0.956610029         0.849720010         0.246560001 F F F
     0.271700008         0.127910006         0.251719999 F F F
     0.370829995         0.274160000         0.254680014 F F F
     0.224480003         0.227599990         0.250250006 F F F
     0.140479988         0.312979979         0.249280000 F F F
     0.188160006         0.459750007         0.249959993 F F F
     0.041270005         0.360710007         0.249690008 F F F
     0.772849955         0.129769998         0.249399996 F F F
     0.872000004         0.276359998         0.249329996 F F F
     0.725109990         0.228650005         0.247590017 F F F
     0.641170020         0.313120017         0.249650002 F F F
     0.690060018         0.459910001         0.258229995 F F F
     0.540460008         0.359070002         0.257230020 F F F
     0.272869983         0.629190000         0.249959993 F F F
     0.371969991         0.775969990         0.249280000 F F F
     0.225039987         0.728239994         0.249679995 F F F
     0.140089987         0.812569952         0.249290013 F F F
     0.187520007         0.959159936         0.249340010 F F F
     0.040910025         0.860270031         0.247499990 F F F
     0.774609992         0.629019981         0.258179998 F F F
     0.872500019         0.775799971         0.249550009 F F F
     0.725839959         0.729839992         0.257169986 F F F
     0.641119992         0.814750027         0.254670000 F F F
     0.688260020         0.961009966         0.251749992 F F F
     0.541340000         0.861319998         0.250250006 F F F
     0.091870002         0.180120010         0.247839999 F F F
     0.320319995         0.043940001         0.252500010 F F F
     0.452530019         0.405349999         0.254139996 F F F
     0.592570014         0.180399991         0.245409989 F F F
     0.820860056         0.045000002         0.252530003 F F F
     0.957090033         0.409259989         0.249520016 F F F
     0.092310006         0.679690012         0.249489999 F F F
     0.320909994         0.544459978         0.249110007 F F F
     0.456220011         0.908830007         0.247819996 F F F
     0.591620063         0.683590008         0.254090023 F F F
     0.821519959         0.544459978         0.252719998 F F F
     0.956609979         0.908510020         0.245269990 F F F
     0.611169978         0.466250001         0.327270007 F F T
